c G328: 328 vertices, 5066 edges, 9 colors; case a=1, b=1
c Original zero-based vertex IDs 0..327; colors 1..9.
c Variable x(v,c)=9*v+c. No auxiliary variables.
c Only graph-coloring clauses and positive unit assignments.
c Fixed assignments: 64:1, 39:2, 36:3, 34:4, 51:5, 0:1, 28:5, 31:6, 33:7
c All nine root cases must be excluded to rule out a 9-coloring.
p cnf 2952 57739
1 2 3 4 5 6 7 8 9 0
-1 -2 0
-1 -3 0
-1 -4 0
-1 -5 0
-1 -6 0
-1 -7 0
-1 -8 0
-1 -9 0
-2 -3 0
-2 -4 0
-2 -5 0
-2 -6 0
-2 -7 0
-2 -8 0
-2 -9 0
-3 -4 0
-3 -5 0
-3 -6 0
-3 -7 0
-3 -8 0
-3 -9 0
-4 -5 0
-4 -6 0
-4 -7 0
-4 -8 0
-4 -9 0
-5 -6 0
-5 -7 0
-5 -8 0
-5 -9 0
-6 -7 0
-6 -8 0
-6 -9 0
-7 -8 0
-7 -9 0
-8 -9 0
10 11 12 13 14 15 16 17 18 0
-10 -11 0
-10 -12 0
-10 -13 0
-10 -14 0
-10 -15 0
-10 -16 0
-10 -17 0
-10 -18 0
-11 -12 0
-11 -13 0
-11 -14 0
-11 -15 0
-11 -16 0
-11 -17 0
-11 -18 0
-12 -13 0
-12 -14 0
-12 -15 0
-12 -16 0
-12 -17 0
-12 -18 0
-13 -14 0
-13 -15 0
-13 -16 0
-13 -17 0
-13 -18 0
-14 -15 0
-14 -16 0
-14 -17 0
-14 -18 0
-15 -16 0
-15 -17 0
-15 -18 0
-16 -17 0
-16 -18 0
-17 -18 0
19 20 21 22 23 24 25 26 27 0
-19 -20 0
-19 -21 0
-19 -22 0
-19 -23 0
-19 -24 0
-19 -25 0
-19 -26 0
-19 -27 0
-20 -21 0
-20 -22 0
-20 -23 0
-20 -24 0
-20 -25 0
-20 -26 0
-20 -27 0
-21 -22 0
-21 -23 0
-21 -24 0
-21 -25 0
-21 -26 0
-21 -27 0
-22 -23 0
-22 -24 0
-22 -25 0
-22 -26 0
-22 -27 0
-23 -24 0
-23 -25 0
-23 -26 0
-23 -27 0
-24 -25 0
-24 -26 0
-24 -27 0
-25 -26 0
-25 -27 0
-26 -27 0
28 29 30 31 32 33 34 35 36 0
-28 -29 0
-28 -30 0
-28 -31 0
-28 -32 0
-28 -33 0
-28 -34 0
-28 -35 0
-28 -36 0
-29 -30 0
-29 -31 0
-29 -32 0
-29 -33 0
-29 -34 0
-29 -35 0
-29 -36 0
-30 -31 0
-30 -32 0
-30 -33 0
-30 -34 0
-30 -35 0
-30 -36 0
-31 -32 0
-31 -33 0
-31 -34 0
-31 -35 0
-31 -36 0
-32 -33 0
-32 -34 0
-32 -35 0
-32 -36 0
-33 -34 0
-33 -35 0
-33 -36 0
-34 -35 0
-34 -36 0
-35 -36 0
37 38 39 40 41 42 43 44 45 0
-37 -38 0
-37 -39 0
-37 -40 0
-37 -41 0
-37 -42 0
-37 -43 0
-37 -44 0
-37 -45 0
-38 -39 0
-38 -40 0
-38 -41 0
-38 -42 0
-38 -43 0
-38 -44 0
-38 -45 0
-39 -40 0
-39 -41 0
-39 -42 0
-39 -43 0
-39 -44 0
-39 -45 0
-40 -41 0
-40 -42 0
-40 -43 0
-40 -44 0
-40 -45 0
-41 -42 0
-41 -43 0
-41 -44 0
-41 -45 0
-42 -43 0
-42 -44 0
-42 -45 0
-43 -44 0
-43 -45 0
-44 -45 0
46 47 48 49 50 51 52 53 54 0
-46 -47 0
-46 -48 0
-46 -49 0
-46 -50 0
-46 -51 0
-46 -52 0
-46 -53 0
-46 -54 0
-47 -48 0
-47 -49 0
-47 -50 0
-47 -51 0
-47 -52 0
-47 -53 0
-47 -54 0
-48 -49 0
-48 -50 0
-48 -51 0
-48 -52 0
-48 -53 0
-48 -54 0
-49 -50 0
-49 -51 0
-49 -52 0
-49 -53 0
-49 -54 0
-50 -51 0
-50 -52 0
-50 -53 0
-50 -54 0
-51 -52 0
-51 -53 0
-51 -54 0
-52 -53 0
-52 -54 0
-53 -54 0
55 56 57 58 59 60 61 62 63 0
-55 -56 0
-55 -57 0
-55 -58 0
-55 -59 0
-55 -60 0
-55 -61 0
-55 -62 0
-55 -63 0
-56 -57 0
-56 -58 0
-56 -59 0
-56 -60 0
-56 -61 0
-56 -62 0
-56 -63 0
-57 -58 0
-57 -59 0
-57 -60 0
-57 -61 0
-57 -62 0
-57 -63 0
-58 -59 0
-58 -60 0
-58 -61 0
-58 -62 0
-58 -63 0
-59 -60 0
-59 -61 0
-59 -62 0
-59 -63 0
-60 -61 0
-60 -62 0
-60 -63 0
-61 -62 0
-61 -63 0
-62 -63 0
64 65 66 67 68 69 70 71 72 0
-64 -65 0
-64 -66 0
-64 -67 0
-64 -68 0
-64 -69 0
-64 -70 0
-64 -71 0
-64 -72 0
-65 -66 0
-65 -67 0
-65 -68 0
-65 -69 0
-65 -70 0
-65 -71 0
-65 -72 0
-66 -67 0
-66 -68 0
-66 -69 0
-66 -70 0
-66 -71 0
-66 -72 0
-67 -68 0
-67 -69 0
-67 -70 0
-67 -71 0
-67 -72 0
-68 -69 0
-68 -70 0
-68 -71 0
-68 -72 0
-69 -70 0
-69 -71 0
-69 -72 0
-70 -71 0
-70 -72 0
-71 -72 0
73 74 75 76 77 78 79 80 81 0
-73 -74 0
-73 -75 0
-73 -76 0
-73 -77 0
-73 -78 0
-73 -79 0
-73 -80 0
-73 -81 0
-74 -75 0
-74 -76 0
-74 -77 0
-74 -78 0
-74 -79 0
-74 -80 0
-74 -81 0
-75 -76 0
-75 -77 0
-75 -78 0
-75 -79 0
-75 -80 0
-75 -81 0
-76 -77 0
-76 -78 0
-76 -79 0
-76 -80 0
-76 -81 0
-77 -78 0
-77 -79 0
-77 -80 0
-77 -81 0
-78 -79 0
-78 -80 0
-78 -81 0
-79 -80 0
-79 -81 0
-80 -81 0
82 83 84 85 86 87 88 89 90 0
-82 -83 0
-82 -84 0
-82 -85 0
-82 -86 0
-82 -87 0
-82 -88 0
-82 -89 0
-82 -90 0
-83 -84 0
-83 -85 0
-83 -86 0
-83 -87 0
-83 -88 0
-83 -89 0
-83 -90 0
-84 -85 0
-84 -86 0
-84 -87 0
-84 -88 0
-84 -89 0
-84 -90 0
-85 -86 0
-85 -87 0
-85 -88 0
-85 -89 0
-85 -90 0
-86 -87 0
-86 -88 0
-86 -89 0
-86 -90 0
-87 -88 0
-87 -89 0
-87 -90 0
-88 -89 0
-88 -90 0
-89 -90 0
91 92 93 94 95 96 97 98 99 0
-91 -92 0
-91 -93 0
-91 -94 0
-91 -95 0
-91 -96 0
-91 -97 0
-91 -98 0
-91 -99 0
-92 -93 0
-92 -94 0
-92 -95 0
-92 -96 0
-92 -97 0
-92 -98 0
-92 -99 0
-93 -94 0
-93 -95 0
-93 -96 0
-93 -97 0
-93 -98 0
-93 -99 0
-94 -95 0
-94 -96 0
-94 -97 0
-94 -98 0
-94 -99 0
-95 -96 0
-95 -97 0
-95 -98 0
-95 -99 0
-96 -97 0
-96 -98 0
-96 -99 0
-97 -98 0
-97 -99 0
-98 -99 0
100 101 102 103 104 105 106 107 108 0
-100 -101 0
-100 -102 0
-100 -103 0
-100 -104 0
-100 -105 0
-100 -106 0
-100 -107 0
-100 -108 0
-101 -102 0
-101 -103 0
-101 -104 0
-101 -105 0
-101 -106 0
-101 -107 0
-101 -108 0
-102 -103 0
-102 -104 0
-102 -105 0
-102 -106 0
-102 -107 0
-102 -108 0
-103 -104 0
-103 -105 0
-103 -106 0
-103 -107 0
-103 -108 0
-104 -105 0
-104 -106 0
-104 -107 0
-104 -108 0
-105 -106 0
-105 -107 0
-105 -108 0
-106 -107 0
-106 -108 0
-107 -108 0
109 110 111 112 113 114 115 116 117 0
-109 -110 0
-109 -111 0
-109 -112 0
-109 -113 0
-109 -114 0
-109 -115 0
-109 -116 0
-109 -117 0
-110 -111 0
-110 -112 0
-110 -113 0
-110 -114 0
-110 -115 0
-110 -116 0
-110 -117 0
-111 -112 0
-111 -113 0
-111 -114 0
-111 -115 0
-111 -116 0
-111 -117 0
-112 -113 0
-112 -114 0
-112 -115 0
-112 -116 0
-112 -117 0
-113 -114 0
-113 -115 0
-113 -116 0
-113 -117 0
-114 -115 0
-114 -116 0
-114 -117 0
-115 -116 0
-115 -117 0
-116 -117 0
118 119 120 121 122 123 124 125 126 0
-118 -119 0
-118 -120 0
-118 -121 0
-118 -122 0
-118 -123 0
-118 -124 0
-118 -125 0
-118 -126 0
-119 -120 0
-119 -121 0
-119 -122 0
-119 -123 0
-119 -124 0
-119 -125 0
-119 -126 0
-120 -121 0
-120 -122 0
-120 -123 0
-120 -124 0
-120 -125 0
-120 -126 0
-121 -122 0
-121 -123 0
-121 -124 0
-121 -125 0
-121 -126 0
-122 -123 0
-122 -124 0
-122 -125 0
-122 -126 0
-123 -124 0
-123 -125 0
-123 -126 0
-124 -125 0
-124 -126 0
-125 -126 0
127 128 129 130 131 132 133 134 135 0
-127 -128 0
-127 -129 0
-127 -130 0
-127 -131 0
-127 -132 0
-127 -133 0
-127 -134 0
-127 -135 0
-128 -129 0
-128 -130 0
-128 -131 0
-128 -132 0
-128 -133 0
-128 -134 0
-128 -135 0
-129 -130 0
-129 -131 0
-129 -132 0
-129 -133 0
-129 -134 0
-129 -135 0
-130 -131 0
-130 -132 0
-130 -133 0
-130 -134 0
-130 -135 0
-131 -132 0
-131 -133 0
-131 -134 0
-131 -135 0
-132 -133 0
-132 -134 0
-132 -135 0
-133 -134 0
-133 -135 0
-134 -135 0
136 137 138 139 140 141 142 143 144 0
-136 -137 0
-136 -138 0
-136 -139 0
-136 -140 0
-136 -141 0
-136 -142 0
-136 -143 0
-136 -144 0
-137 -138 0
-137 -139 0
-137 -140 0
-137 -141 0
-137 -142 0
-137 -143 0
-137 -144 0
-138 -139 0
-138 -140 0
-138 -141 0
-138 -142 0
-138 -143 0
-138 -144 0
-139 -140 0
-139 -141 0
-139 -142 0
-139 -143 0
-139 -144 0
-140 -141 0
-140 -142 0
-140 -143 0
-140 -144 0
-141 -142 0
-141 -143 0
-141 -144 0
-142 -143 0
-142 -144 0
-143 -144 0
145 146 147 148 149 150 151 152 153 0
-145 -146 0
-145 -147 0
-145 -148 0
-145 -149 0
-145 -150 0
-145 -151 0
-145 -152 0
-145 -153 0
-146 -147 0
-146 -148 0
-146 -149 0
-146 -150 0
-146 -151 0
-146 -152 0
-146 -153 0
-147 -148 0
-147 -149 0
-147 -150 0
-147 -151 0
-147 -152 0
-147 -153 0
-148 -149 0
-148 -150 0
-148 -151 0
-148 -152 0
-148 -153 0
-149 -150 0
-149 -151 0
-149 -152 0
-149 -153 0
-150 -151 0
-150 -152 0
-150 -153 0
-151 -152 0
-151 -153 0
-152 -153 0
154 155 156 157 158 159 160 161 162 0
-154 -155 0
-154 -156 0
-154 -157 0
-154 -158 0
-154 -159 0
-154 -160 0
-154 -161 0
-154 -162 0
-155 -156 0
-155 -157 0
-155 -158 0
-155 -159 0
-155 -160 0
-155 -161 0
-155 -162 0
-156 -157 0
-156 -158 0
-156 -159 0
-156 -160 0
-156 -161 0
-156 -162 0
-157 -158 0
-157 -159 0
-157 -160 0
-157 -161 0
-157 -162 0
-158 -159 0
-158 -160 0
-158 -161 0
-158 -162 0
-159 -160 0
-159 -161 0
-159 -162 0
-160 -161 0
-160 -162 0
-161 -162 0
163 164 165 166 167 168 169 170 171 0
-163 -164 0
-163 -165 0
-163 -166 0
-163 -167 0
-163 -168 0
-163 -169 0
-163 -170 0
-163 -171 0
-164 -165 0
-164 -166 0
-164 -167 0
-164 -168 0
-164 -169 0
-164 -170 0
-164 -171 0
-165 -166 0
-165 -167 0
-165 -168 0
-165 -169 0
-165 -170 0
-165 -171 0
-166 -167 0
-166 -168 0
-166 -169 0
-166 -170 0
-166 -171 0
-167 -168 0
-167 -169 0
-167 -170 0
-167 -171 0
-168 -169 0
-168 -170 0
-168 -171 0
-169 -170 0
-169 -171 0
-170 -171 0
172 173 174 175 176 177 178 179 180 0
-172 -173 0
-172 -174 0
-172 -175 0
-172 -176 0
-172 -177 0
-172 -178 0
-172 -179 0
-172 -180 0
-173 -174 0
-173 -175 0
-173 -176 0
-173 -177 0
-173 -178 0
-173 -179 0
-173 -180 0
-174 -175 0
-174 -176 0
-174 -177 0
-174 -178 0
-174 -179 0
-174 -180 0
-175 -176 0
-175 -177 0
-175 -178 0
-175 -179 0
-175 -180 0
-176 -177 0
-176 -178 0
-176 -179 0
-176 -180 0
-177 -178 0
-177 -179 0
-177 -180 0
-178 -179 0
-178 -180 0
-179 -180 0
181 182 183 184 185 186 187 188 189 0
-181 -182 0
-181 -183 0
-181 -184 0
-181 -185 0
-181 -186 0
-181 -187 0
-181 -188 0
-181 -189 0
-182 -183 0
-182 -184 0
-182 -185 0
-182 -186 0
-182 -187 0
-182 -188 0
-182 -189 0
-183 -184 0
-183 -185 0
-183 -186 0
-183 -187 0
-183 -188 0
-183 -189 0
-184 -185 0
-184 -186 0
-184 -187 0
-184 -188 0
-184 -189 0
-185 -186 0
-185 -187 0
-185 -188 0
-185 -189 0
-186 -187 0
-186 -188 0
-186 -189 0
-187 -188 0
-187 -189 0
-188 -189 0
190 191 192 193 194 195 196 197 198 0
-190 -191 0
-190 -192 0
-190 -193 0
-190 -194 0
-190 -195 0
-190 -196 0
-190 -197 0
-190 -198 0
-191 -192 0
-191 -193 0
-191 -194 0
-191 -195 0
-191 -196 0
-191 -197 0
-191 -198 0
-192 -193 0
-192 -194 0
-192 -195 0
-192 -196 0
-192 -197 0
-192 -198 0
-193 -194 0
-193 -195 0
-193 -196 0
-193 -197 0
-193 -198 0
-194 -195 0
-194 -196 0
-194 -197 0
-194 -198 0
-195 -196 0
-195 -197 0
-195 -198 0
-196 -197 0
-196 -198 0
-197 -198 0
199 200 201 202 203 204 205 206 207 0
-199 -200 0
-199 -201 0
-199 -202 0
-199 -203 0
-199 -204 0
-199 -205 0
-199 -206 0
-199 -207 0
-200 -201 0
-200 -202 0
-200 -203 0
-200 -204 0
-200 -205 0
-200 -206 0
-200 -207 0
-201 -202 0
-201 -203 0
-201 -204 0
-201 -205 0
-201 -206 0
-201 -207 0
-202 -203 0
-202 -204 0
-202 -205 0
-202 -206 0
-202 -207 0
-203 -204 0
-203 -205 0
-203 -206 0
-203 -207 0
-204 -205 0
-204 -206 0
-204 -207 0
-205 -206 0
-205 -207 0
-206 -207 0
208 209 210 211 212 213 214 215 216 0
-208 -209 0
-208 -210 0
-208 -211 0
-208 -212 0
-208 -213 0
-208 -214 0
-208 -215 0
-208 -216 0
-209 -210 0
-209 -211 0
-209 -212 0
-209 -213 0
-209 -214 0
-209 -215 0
-209 -216 0
-210 -211 0
-210 -212 0
-210 -213 0
-210 -214 0
-210 -215 0
-210 -216 0
-211 -212 0
-211 -213 0
-211 -214 0
-211 -215 0
-211 -216 0
-212 -213 0
-212 -214 0
-212 -215 0
-212 -216 0
-213 -214 0
-213 -215 0
-213 -216 0
-214 -215 0
-214 -216 0
-215 -216 0
217 218 219 220 221 222 223 224 225 0
-217 -218 0
-217 -219 0
-217 -220 0
-217 -221 0
-217 -222 0
-217 -223 0
-217 -224 0
-217 -225 0
-218 -219 0
-218 -220 0
-218 -221 0
-218 -222 0
-218 -223 0
-218 -224 0
-218 -225 0
-219 -220 0
-219 -221 0
-219 -222 0
-219 -223 0
-219 -224 0
-219 -225 0
-220 -221 0
-220 -222 0
-220 -223 0
-220 -224 0
-220 -225 0
-221 -222 0
-221 -223 0
-221 -224 0
-221 -225 0
-222 -223 0
-222 -224 0
-222 -225 0
-223 -224 0
-223 -225 0
-224 -225 0
226 227 228 229 230 231 232 233 234 0
-226 -227 0
-226 -228 0
-226 -229 0
-226 -230 0
-226 -231 0
-226 -232 0
-226 -233 0
-226 -234 0
-227 -228 0
-227 -229 0
-227 -230 0
-227 -231 0
-227 -232 0
-227 -233 0
-227 -234 0
-228 -229 0
-228 -230 0
-228 -231 0
-228 -232 0
-228 -233 0
-228 -234 0
-229 -230 0
-229 -231 0
-229 -232 0
-229 -233 0
-229 -234 0
-230 -231 0
-230 -232 0
-230 -233 0
-230 -234 0
-231 -232 0
-231 -233 0
-231 -234 0
-232 -233 0
-232 -234 0
-233 -234 0
235 236 237 238 239 240 241 242 243 0
-235 -236 0
-235 -237 0
-235 -238 0
-235 -239 0
-235 -240 0
-235 -241 0
-235 -242 0
-235 -243 0
-236 -237 0
-236 -238 0
-236 -239 0
-236 -240 0
-236 -241 0
-236 -242 0
-236 -243 0
-237 -238 0
-237 -239 0
-237 -240 0
-237 -241 0
-237 -242 0
-237 -243 0
-238 -239 0
-238 -240 0
-238 -241 0
-238 -242 0
-238 -243 0
-239 -240 0
-239 -241 0
-239 -242 0
-239 -243 0
-240 -241 0
-240 -242 0
-240 -243 0
-241 -242 0
-241 -243 0
-242 -243 0
244 245 246 247 248 249 250 251 252 0
-244 -245 0
-244 -246 0
-244 -247 0
-244 -248 0
-244 -249 0
-244 -250 0
-244 -251 0
-244 -252 0
-245 -246 0
-245 -247 0
-245 -248 0
-245 -249 0
-245 -250 0
-245 -251 0
-245 -252 0
-246 -247 0
-246 -248 0
-246 -249 0
-246 -250 0
-246 -251 0
-246 -252 0
-247 -248 0
-247 -249 0
-247 -250 0
-247 -251 0
-247 -252 0
-248 -249 0
-248 -250 0
-248 -251 0
-248 -252 0
-249 -250 0
-249 -251 0
-249 -252 0
-250 -251 0
-250 -252 0
-251 -252 0
253 254 255 256 257 258 259 260 261 0
-253 -254 0
-253 -255 0
-253 -256 0
-253 -257 0
-253 -258 0
-253 -259 0
-253 -260 0
-253 -261 0
-254 -255 0
-254 -256 0
-254 -257 0
-254 -258 0
-254 -259 0
-254 -260 0
-254 -261 0
-255 -256 0
-255 -257 0
-255 -258 0
-255 -259 0
-255 -260 0
-255 -261 0
-256 -257 0
-256 -258 0
-256 -259 0
-256 -260 0
-256 -261 0
-257 -258 0
-257 -259 0
-257 -260 0
-257 -261 0
-258 -259 0
-258 -260 0
-258 -261 0
-259 -260 0
-259 -261 0
-260 -261 0
262 263 264 265 266 267 268 269 270 0
-262 -263 0
-262 -264 0
-262 -265 0
-262 -266 0
-262 -267 0
-262 -268 0
-262 -269 0
-262 -270 0
-263 -264 0
-263 -265 0
-263 -266 0
-263 -267 0
-263 -268 0
-263 -269 0
-263 -270 0
-264 -265 0
-264 -266 0
-264 -267 0
-264 -268 0
-264 -269 0
-264 -270 0
-265 -266 0
-265 -267 0
-265 -268 0
-265 -269 0
-265 -270 0
-266 -267 0
-266 -268 0
-266 -269 0
-266 -270 0
-267 -268 0
-267 -269 0
-267 -270 0
-268 -269 0
-268 -270 0
-269 -270 0
271 272 273 274 275 276 277 278 279 0
-271 -272 0
-271 -273 0
-271 -274 0
-271 -275 0
-271 -276 0
-271 -277 0
-271 -278 0
-271 -279 0
-272 -273 0
-272 -274 0
-272 -275 0
-272 -276 0
-272 -277 0
-272 -278 0
-272 -279 0
-273 -274 0
-273 -275 0
-273 -276 0
-273 -277 0
-273 -278 0
-273 -279 0
-274 -275 0
-274 -276 0
-274 -277 0
-274 -278 0
-274 -279 0
-275 -276 0
-275 -277 0
-275 -278 0
-275 -279 0
-276 -277 0
-276 -278 0
-276 -279 0
-277 -278 0
-277 -279 0
-278 -279 0
280 281 282 283 284 285 286 287 288 0
-280 -281 0
-280 -282 0
-280 -283 0
-280 -284 0
-280 -285 0
-280 -286 0
-280 -287 0
-280 -288 0
-281 -282 0
-281 -283 0
-281 -284 0
-281 -285 0
-281 -286 0
-281 -287 0
-281 -288 0
-282 -283 0
-282 -284 0
-282 -285 0
-282 -286 0
-282 -287 0
-282 -288 0
-283 -284 0
-283 -285 0
-283 -286 0
-283 -287 0
-283 -288 0
-284 -285 0
-284 -286 0
-284 -287 0
-284 -288 0
-285 -286 0
-285 -287 0
-285 -288 0
-286 -287 0
-286 -288 0
-287 -288 0
289 290 291 292 293 294 295 296 297 0
-289 -290 0
-289 -291 0
-289 -292 0
-289 -293 0
-289 -294 0
-289 -295 0
-289 -296 0
-289 -297 0
-290 -291 0
-290 -292 0
-290 -293 0
-290 -294 0
-290 -295 0
-290 -296 0
-290 -297 0
-291 -292 0
-291 -293 0
-291 -294 0
-291 -295 0
-291 -296 0
-291 -297 0
-292 -293 0
-292 -294 0
-292 -295 0
-292 -296 0
-292 -297 0
-293 -294 0
-293 -295 0
-293 -296 0
-293 -297 0
-294 -295 0
-294 -296 0
-294 -297 0
-295 -296 0
-295 -297 0
-296 -297 0
298 299 300 301 302 303 304 305 306 0
-298 -299 0
-298 -300 0
-298 -301 0
-298 -302 0
-298 -303 0
-298 -304 0
-298 -305 0
-298 -306 0
-299 -300 0
-299 -301 0
-299 -302 0
-299 -303 0
-299 -304 0
-299 -305 0
-299 -306 0
-300 -301 0
-300 -302 0
-300 -303 0
-300 -304 0
-300 -305 0
-300 -306 0
-301 -302 0
-301 -303 0
-301 -304 0
-301 -305 0
-301 -306 0
-302 -303 0
-302 -304 0
-302 -305 0
-302 -306 0
-303 -304 0
-303 -305 0
-303 -306 0
-304 -305 0
-304 -306 0
-305 -306 0
307 308 309 310 311 312 313 314 315 0
-307 -308 0
-307 -309 0
-307 -310 0
-307 -311 0
-307 -312 0
-307 -313 0
-307 -314 0
-307 -315 0
-308 -309 0
-308 -310 0
-308 -311 0
-308 -312 0
-308 -313 0
-308 -314 0
-308 -315 0
-309 -310 0
-309 -311 0
-309 -312 0
-309 -313 0
-309 -314 0
-309 -315 0
-310 -311 0
-310 -312 0
-310 -313 0
-310 -314 0
-310 -315 0
-311 -312 0
-311 -313 0
-311 -314 0
-311 -315 0
-312 -313 0
-312 -314 0
-312 -315 0
-313 -314 0
-313 -315 0
-314 -315 0
316 317 318 319 320 321 322 323 324 0
-316 -317 0
-316 -318 0
-316 -319 0
-316 -320 0
-316 -321 0
-316 -322 0
-316 -323 0
-316 -324 0
-317 -318 0
-317 -319 0
-317 -320 0
-317 -321 0
-317 -322 0
-317 -323 0
-317 -324 0
-318 -319 0
-318 -320 0
-318 -321 0
-318 -322 0
-318 -323 0
-318 -324 0
-319 -320 0
-319 -321 0
-319 -322 0
-319 -323 0
-319 -324 0
-320 -321 0
-320 -322 0
-320 -323 0
-320 -324 0
-321 -322 0
-321 -323 0
-321 -324 0
-322 -323 0
-322 -324 0
-323 -324 0
325 326 327 328 329 330 331 332 333 0
-325 -326 0
-325 -327 0
-325 -328 0
-325 -329 0
-325 -330 0
-325 -331 0
-325 -332 0
-325 -333 0
-326 -327 0
-326 -328 0
-326 -329 0
-326 -330 0
-326 -331 0
-326 -332 0
-326 -333 0
-327 -328 0
-327 -329 0
-327 -330 0
-327 -331 0
-327 -332 0
-327 -333 0
-328 -329 0
-328 -330 0
-328 -331 0
-328 -332 0
-328 -333 0
-329 -330 0
-329 -331 0
-329 -332 0
-329 -333 0
-330 -331 0
-330 -332 0
-330 -333 0
-331 -332 0
-331 -333 0
-332 -333 0
334 335 336 337 338 339 340 341 342 0
-334 -335 0
-334 -336 0
-334 -337 0
-334 -338 0
-334 -339 0
-334 -340 0
-334 -341 0
-334 -342 0
-335 -336 0
-335 -337 0
-335 -338 0
-335 -339 0
-335 -340 0
-335 -341 0
-335 -342 0
-336 -337 0
-336 -338 0
-336 -339 0
-336 -340 0
-336 -341 0
-336 -342 0
-337 -338 0
-337 -339 0
-337 -340 0
-337 -341 0
-337 -342 0
-338 -339 0
-338 -340 0
-338 -341 0
-338 -342 0
-339 -340 0
-339 -341 0
-339 -342 0
-340 -341 0
-340 -342 0
-341 -342 0
343 344 345 346 347 348 349 350 351 0
-343 -344 0
-343 -345 0
-343 -346 0
-343 -347 0
-343 -348 0
-343 -349 0
-343 -350 0
-343 -351 0
-344 -345 0
-344 -346 0
-344 -347 0
-344 -348 0
-344 -349 0
-344 -350 0
-344 -351 0
-345 -346 0
-345 -347 0
-345 -348 0
-345 -349 0
-345 -350 0
-345 -351 0
-346 -347 0
-346 -348 0
-346 -349 0
-346 -350 0
-346 -351 0
-347 -348 0
-347 -349 0
-347 -350 0
-347 -351 0
-348 -349 0
-348 -350 0
-348 -351 0
-349 -350 0
-349 -351 0
-350 -351 0
352 353 354 355 356 357 358 359 360 0
-352 -353 0
-352 -354 0
-352 -355 0
-352 -356 0
-352 -357 0
-352 -358 0
-352 -359 0
-352 -360 0
-353 -354 0
-353 -355 0
-353 -356 0
-353 -357 0
-353 -358 0
-353 -359 0
-353 -360 0
-354 -355 0
-354 -356 0
-354 -357 0
-354 -358 0
-354 -359 0
-354 -360 0
-355 -356 0
-355 -357 0
-355 -358 0
-355 -359 0
-355 -360 0
-356 -357 0
-356 -358 0
-356 -359 0
-356 -360 0
-357 -358 0
-357 -359 0
-357 -360 0
-358 -359 0
-358 -360 0
-359 -360 0
361 362 363 364 365 366 367 368 369 0
-361 -362 0
-361 -363 0
-361 -364 0
-361 -365 0
-361 -366 0
-361 -367 0
-361 -368 0
-361 -369 0
-362 -363 0
-362 -364 0
-362 -365 0
-362 -366 0
-362 -367 0
-362 -368 0
-362 -369 0
-363 -364 0
-363 -365 0
-363 -366 0
-363 -367 0
-363 -368 0
-363 -369 0
-364 -365 0
-364 -366 0
-364 -367 0
-364 -368 0
-364 -369 0
-365 -366 0
-365 -367 0
-365 -368 0
-365 -369 0
-366 -367 0
-366 -368 0
-366 -369 0
-367 -368 0
-367 -369 0
-368 -369 0
370 371 372 373 374 375 376 377 378 0
-370 -371 0
-370 -372 0
-370 -373 0
-370 -374 0
-370 -375 0
-370 -376 0
-370 -377 0
-370 -378 0
-371 -372 0
-371 -373 0
-371 -374 0
-371 -375 0
-371 -376 0
-371 -377 0
-371 -378 0
-372 -373 0
-372 -374 0
-372 -375 0
-372 -376 0
-372 -377 0
-372 -378 0
-373 -374 0
-373 -375 0
-373 -376 0
-373 -377 0
-373 -378 0
-374 -375 0
-374 -376 0
-374 -377 0
-374 -378 0
-375 -376 0
-375 -377 0
-375 -378 0
-376 -377 0
-376 -378 0
-377 -378 0
379 380 381 382 383 384 385 386 387 0
-379 -380 0
-379 -381 0
-379 -382 0
-379 -383 0
-379 -384 0
-379 -385 0
-379 -386 0
-379 -387 0
-380 -381 0
-380 -382 0
-380 -383 0
-380 -384 0
-380 -385 0
-380 -386 0
-380 -387 0
-381 -382 0
-381 -383 0
-381 -384 0
-381 -385 0
-381 -386 0
-381 -387 0
-382 -383 0
-382 -384 0
-382 -385 0
-382 -386 0
-382 -387 0
-383 -384 0
-383 -385 0
-383 -386 0
-383 -387 0
-384 -385 0
-384 -386 0
-384 -387 0
-385 -386 0
-385 -387 0
-386 -387 0
388 389 390 391 392 393 394 395 396 0
-388 -389 0
-388 -390 0
-388 -391 0
-388 -392 0
-388 -393 0
-388 -394 0
-388 -395 0
-388 -396 0
-389 -390 0
-389 -391 0
-389 -392 0
-389 -393 0
-389 -394 0
-389 -395 0
-389 -396 0
-390 -391 0
-390 -392 0
-390 -393 0
-390 -394 0
-390 -395 0
-390 -396 0
-391 -392 0
-391 -393 0
-391 -394 0
-391 -395 0
-391 -396 0
-392 -393 0
-392 -394 0
-392 -395 0
-392 -396 0
-393 -394 0
-393 -395 0
-393 -396 0
-394 -395 0
-394 -396 0
-395 -396 0
397 398 399 400 401 402 403 404 405 0
-397 -398 0
-397 -399 0
-397 -400 0
-397 -401 0
-397 -402 0
-397 -403 0
-397 -404 0
-397 -405 0
-398 -399 0
-398 -400 0
-398 -401 0
-398 -402 0
-398 -403 0
-398 -404 0
-398 -405 0
-399 -400 0
-399 -401 0
-399 -402 0
-399 -403 0
-399 -404 0
-399 -405 0
-400 -401 0
-400 -402 0
-400 -403 0
-400 -404 0
-400 -405 0
-401 -402 0
-401 -403 0
-401 -404 0
-401 -405 0
-402 -403 0
-402 -404 0
-402 -405 0
-403 -404 0
-403 -405 0
-404 -405 0
406 407 408 409 410 411 412 413 414 0
-406 -407 0
-406 -408 0
-406 -409 0
-406 -410 0
-406 -411 0
-406 -412 0
-406 -413 0
-406 -414 0
-407 -408 0
-407 -409 0
-407 -410 0
-407 -411 0
-407 -412 0
-407 -413 0
-407 -414 0
-408 -409 0
-408 -410 0
-408 -411 0
-408 -412 0
-408 -413 0
-408 -414 0
-409 -410 0
-409 -411 0
-409 -412 0
-409 -413 0
-409 -414 0
-410 -411 0
-410 -412 0
-410 -413 0
-410 -414 0
-411 -412 0
-411 -413 0
-411 -414 0
-412 -413 0
-412 -414 0
-413 -414 0
415 416 417 418 419 420 421 422 423 0
-415 -416 0
-415 -417 0
-415 -418 0
-415 -419 0
-415 -420 0
-415 -421 0
-415 -422 0
-415 -423 0
-416 -417 0
-416 -418 0
-416 -419 0
-416 -420 0
-416 -421 0
-416 -422 0
-416 -423 0
-417 -418 0
-417 -419 0
-417 -420 0
-417 -421 0
-417 -422 0
-417 -423 0
-418 -419 0
-418 -420 0
-418 -421 0
-418 -422 0
-418 -423 0
-419 -420 0
-419 -421 0
-419 -422 0
-419 -423 0
-420 -421 0
-420 -422 0
-420 -423 0
-421 -422 0
-421 -423 0
-422 -423 0
424 425 426 427 428 429 430 431 432 0
-424 -425 0
-424 -426 0
-424 -427 0
-424 -428 0
-424 -429 0
-424 -430 0
-424 -431 0
-424 -432 0
-425 -426 0
-425 -427 0
-425 -428 0
-425 -429 0
-425 -430 0
-425 -431 0
-425 -432 0
-426 -427 0
-426 -428 0
-426 -429 0
-426 -430 0
-426 -431 0
-426 -432 0
-427 -428 0
-427 -429 0
-427 -430 0
-427 -431 0
-427 -432 0
-428 -429 0
-428 -430 0
-428 -431 0
-428 -432 0
-429 -430 0
-429 -431 0
-429 -432 0
-430 -431 0
-430 -432 0
-431 -432 0
433 434 435 436 437 438 439 440 441 0
-433 -434 0
-433 -435 0
-433 -436 0
-433 -437 0
-433 -438 0
-433 -439 0
-433 -440 0
-433 -441 0
-434 -435 0
-434 -436 0
-434 -437 0
-434 -438 0
-434 -439 0
-434 -440 0
-434 -441 0
-435 -436 0
-435 -437 0
-435 -438 0
-435 -439 0
-435 -440 0
-435 -441 0
-436 -437 0
-436 -438 0
-436 -439 0
-436 -440 0
-436 -441 0
-437 -438 0
-437 -439 0
-437 -440 0
-437 -441 0
-438 -439 0
-438 -440 0
-438 -441 0
-439 -440 0
-439 -441 0
-440 -441 0
442 443 444 445 446 447 448 449 450 0
-442 -443 0
-442 -444 0
-442 -445 0
-442 -446 0
-442 -447 0
-442 -448 0
-442 -449 0
-442 -450 0
-443 -444 0
-443 -445 0
-443 -446 0
-443 -447 0
-443 -448 0
-443 -449 0
-443 -450 0
-444 -445 0
-444 -446 0
-444 -447 0
-444 -448 0
-444 -449 0
-444 -450 0
-445 -446 0
-445 -447 0
-445 -448 0
-445 -449 0
-445 -450 0
-446 -447 0
-446 -448 0
-446 -449 0
-446 -450 0
-447 -448 0
-447 -449 0
-447 -450 0
-448 -449 0
-448 -450 0
-449 -450 0
451 452 453 454 455 456 457 458 459 0
-451 -452 0
-451 -453 0
-451 -454 0
-451 -455 0
-451 -456 0
-451 -457 0
-451 -458 0
-451 -459 0
-452 -453 0
-452 -454 0
-452 -455 0
-452 -456 0
-452 -457 0
-452 -458 0
-452 -459 0
-453 -454 0
-453 -455 0
-453 -456 0
-453 -457 0
-453 -458 0
-453 -459 0
-454 -455 0
-454 -456 0
-454 -457 0
-454 -458 0
-454 -459 0
-455 -456 0
-455 -457 0
-455 -458 0
-455 -459 0
-456 -457 0
-456 -458 0
-456 -459 0
-457 -458 0
-457 -459 0
-458 -459 0
460 461 462 463 464 465 466 467 468 0
-460 -461 0
-460 -462 0
-460 -463 0
-460 -464 0
-460 -465 0
-460 -466 0
-460 -467 0
-460 -468 0
-461 -462 0
-461 -463 0
-461 -464 0
-461 -465 0
-461 -466 0
-461 -467 0
-461 -468 0
-462 -463 0
-462 -464 0
-462 -465 0
-462 -466 0
-462 -467 0
-462 -468 0
-463 -464 0
-463 -465 0
-463 -466 0
-463 -467 0
-463 -468 0
-464 -465 0
-464 -466 0
-464 -467 0
-464 -468 0
-465 -466 0
-465 -467 0
-465 -468 0
-466 -467 0
-466 -468 0
-467 -468 0
469 470 471 472 473 474 475 476 477 0
-469 -470 0
-469 -471 0
-469 -472 0
-469 -473 0
-469 -474 0
-469 -475 0
-469 -476 0
-469 -477 0
-470 -471 0
-470 -472 0
-470 -473 0
-470 -474 0
-470 -475 0
-470 -476 0
-470 -477 0
-471 -472 0
-471 -473 0
-471 -474 0
-471 -475 0
-471 -476 0
-471 -477 0
-472 -473 0
-472 -474 0
-472 -475 0
-472 -476 0
-472 -477 0
-473 -474 0
-473 -475 0
-473 -476 0
-473 -477 0
-474 -475 0
-474 -476 0
-474 -477 0
-475 -476 0
-475 -477 0
-476 -477 0
478 479 480 481 482 483 484 485 486 0
-478 -479 0
-478 -480 0
-478 -481 0
-478 -482 0
-478 -483 0
-478 -484 0
-478 -485 0
-478 -486 0
-479 -480 0
-479 -481 0
-479 -482 0
-479 -483 0
-479 -484 0
-479 -485 0
-479 -486 0
-480 -481 0
-480 -482 0
-480 -483 0
-480 -484 0
-480 -485 0
-480 -486 0
-481 -482 0
-481 -483 0
-481 -484 0
-481 -485 0
-481 -486 0
-482 -483 0
-482 -484 0
-482 -485 0
-482 -486 0
-483 -484 0
-483 -485 0
-483 -486 0
-484 -485 0
-484 -486 0
-485 -486 0
487 488 489 490 491 492 493 494 495 0
-487 -488 0
-487 -489 0
-487 -490 0
-487 -491 0
-487 -492 0
-487 -493 0
-487 -494 0
-487 -495 0
-488 -489 0
-488 -490 0
-488 -491 0
-488 -492 0
-488 -493 0
-488 -494 0
-488 -495 0
-489 -490 0
-489 -491 0
-489 -492 0
-489 -493 0
-489 -494 0
-489 -495 0
-490 -491 0
-490 -492 0
-490 -493 0
-490 -494 0
-490 -495 0
-491 -492 0
-491 -493 0
-491 -494 0
-491 -495 0
-492 -493 0
-492 -494 0
-492 -495 0
-493 -494 0
-493 -495 0
-494 -495 0
496 497 498 499 500 501 502 503 504 0
-496 -497 0
-496 -498 0
-496 -499 0
-496 -500 0
-496 -501 0
-496 -502 0
-496 -503 0
-496 -504 0
-497 -498 0
-497 -499 0
-497 -500 0
-497 -501 0
-497 -502 0
-497 -503 0
-497 -504 0
-498 -499 0
-498 -500 0
-498 -501 0
-498 -502 0
-498 -503 0
-498 -504 0
-499 -500 0
-499 -501 0
-499 -502 0
-499 -503 0
-499 -504 0
-500 -501 0
-500 -502 0
-500 -503 0
-500 -504 0
-501 -502 0
-501 -503 0
-501 -504 0
-502 -503 0
-502 -504 0
-503 -504 0
505 506 507 508 509 510 511 512 513 0
-505 -506 0
-505 -507 0
-505 -508 0
-505 -509 0
-505 -510 0
-505 -511 0
-505 -512 0
-505 -513 0
-506 -507 0
-506 -508 0
-506 -509 0
-506 -510 0
-506 -511 0
-506 -512 0
-506 -513 0
-507 -508 0
-507 -509 0
-507 -510 0
-507 -511 0
-507 -512 0
-507 -513 0
-508 -509 0
-508 -510 0
-508 -511 0
-508 -512 0
-508 -513 0
-509 -510 0
-509 -511 0
-509 -512 0
-509 -513 0
-510 -511 0
-510 -512 0
-510 -513 0
-511 -512 0
-511 -513 0
-512 -513 0
514 515 516 517 518 519 520 521 522 0
-514 -515 0
-514 -516 0
-514 -517 0
-514 -518 0
-514 -519 0
-514 -520 0
-514 -521 0
-514 -522 0
-515 -516 0
-515 -517 0
-515 -518 0
-515 -519 0
-515 -520 0
-515 -521 0
-515 -522 0
-516 -517 0
-516 -518 0
-516 -519 0
-516 -520 0
-516 -521 0
-516 -522 0
-517 -518 0
-517 -519 0
-517 -520 0
-517 -521 0
-517 -522 0
-518 -519 0
-518 -520 0
-518 -521 0
-518 -522 0
-519 -520 0
-519 -521 0
-519 -522 0
-520 -521 0
-520 -522 0
-521 -522 0
523 524 525 526 527 528 529 530 531 0
-523 -524 0
-523 -525 0
-523 -526 0
-523 -527 0
-523 -528 0
-523 -529 0
-523 -530 0
-523 -531 0
-524 -525 0
-524 -526 0
-524 -527 0
-524 -528 0
-524 -529 0
-524 -530 0
-524 -531 0
-525 -526 0
-525 -527 0
-525 -528 0
-525 -529 0
-525 -530 0
-525 -531 0
-526 -527 0
-526 -528 0
-526 -529 0
-526 -530 0
-526 -531 0
-527 -528 0
-527 -529 0
-527 -530 0
-527 -531 0
-528 -529 0
-528 -530 0
-528 -531 0
-529 -530 0
-529 -531 0
-530 -531 0
532 533 534 535 536 537 538 539 540 0
-532 -533 0
-532 -534 0
-532 -535 0
-532 -536 0
-532 -537 0
-532 -538 0
-532 -539 0
-532 -540 0
-533 -534 0
-533 -535 0
-533 -536 0
-533 -537 0
-533 -538 0
-533 -539 0
-533 -540 0
-534 -535 0
-534 -536 0
-534 -537 0
-534 -538 0
-534 -539 0
-534 -540 0
-535 -536 0
-535 -537 0
-535 -538 0
-535 -539 0
-535 -540 0
-536 -537 0
-536 -538 0
-536 -539 0
-536 -540 0
-537 -538 0
-537 -539 0
-537 -540 0
-538 -539 0
-538 -540 0
-539 -540 0
541 542 543 544 545 546 547 548 549 0
-541 -542 0
-541 -543 0
-541 -544 0
-541 -545 0
-541 -546 0
-541 -547 0
-541 -548 0
-541 -549 0
-542 -543 0
-542 -544 0
-542 -545 0
-542 -546 0
-542 -547 0
-542 -548 0
-542 -549 0
-543 -544 0
-543 -545 0
-543 -546 0
-543 -547 0
-543 -548 0
-543 -549 0
-544 -545 0
-544 -546 0
-544 -547 0
-544 -548 0
-544 -549 0
-545 -546 0
-545 -547 0
-545 -548 0
-545 -549 0
-546 -547 0
-546 -548 0
-546 -549 0
-547 -548 0
-547 -549 0
-548 -549 0
550 551 552 553 554 555 556 557 558 0
-550 -551 0
-550 -552 0
-550 -553 0
-550 -554 0
-550 -555 0
-550 -556 0
-550 -557 0
-550 -558 0
-551 -552 0
-551 -553 0
-551 -554 0
-551 -555 0
-551 -556 0
-551 -557 0
-551 -558 0
-552 -553 0
-552 -554 0
-552 -555 0
-552 -556 0
-552 -557 0
-552 -558 0
-553 -554 0
-553 -555 0
-553 -556 0
-553 -557 0
-553 -558 0
-554 -555 0
-554 -556 0
-554 -557 0
-554 -558 0
-555 -556 0
-555 -557 0
-555 -558 0
-556 -557 0
-556 -558 0
-557 -558 0
559 560 561 562 563 564 565 566 567 0
-559 -560 0
-559 -561 0
-559 -562 0
-559 -563 0
-559 -564 0
-559 -565 0
-559 -566 0
-559 -567 0
-560 -561 0
-560 -562 0
-560 -563 0
-560 -564 0
-560 -565 0
-560 -566 0
-560 -567 0
-561 -562 0
-561 -563 0
-561 -564 0
-561 -565 0
-561 -566 0
-561 -567 0
-562 -563 0
-562 -564 0
-562 -565 0
-562 -566 0
-562 -567 0
-563 -564 0
-563 -565 0
-563 -566 0
-563 -567 0
-564 -565 0
-564 -566 0
-564 -567 0
-565 -566 0
-565 -567 0
-566 -567 0
568 569 570 571 572 573 574 575 576 0
-568 -569 0
-568 -570 0
-568 -571 0
-568 -572 0
-568 -573 0
-568 -574 0
-568 -575 0
-568 -576 0
-569 -570 0
-569 -571 0
-569 -572 0
-569 -573 0
-569 -574 0
-569 -575 0
-569 -576 0
-570 -571 0
-570 -572 0
-570 -573 0
-570 -574 0
-570 -575 0
-570 -576 0
-571 -572 0
-571 -573 0
-571 -574 0
-571 -575 0
-571 -576 0
-572 -573 0
-572 -574 0
-572 -575 0
-572 -576 0
-573 -574 0
-573 -575 0
-573 -576 0
-574 -575 0
-574 -576 0
-575 -576 0
577 578 579 580 581 582 583 584 585 0
-577 -578 0
-577 -579 0
-577 -580 0
-577 -581 0
-577 -582 0
-577 -583 0
-577 -584 0
-577 -585 0
-578 -579 0
-578 -580 0
-578 -581 0
-578 -582 0
-578 -583 0
-578 -584 0
-578 -585 0
-579 -580 0
-579 -581 0
-579 -582 0
-579 -583 0
-579 -584 0
-579 -585 0
-580 -581 0
-580 -582 0
-580 -583 0
-580 -584 0
-580 -585 0
-581 -582 0
-581 -583 0
-581 -584 0
-581 -585 0
-582 -583 0
-582 -584 0
-582 -585 0
-583 -584 0
-583 -585 0
-584 -585 0
586 587 588 589 590 591 592 593 594 0
-586 -587 0
-586 -588 0
-586 -589 0
-586 -590 0
-586 -591 0
-586 -592 0
-586 -593 0
-586 -594 0
-587 -588 0
-587 -589 0
-587 -590 0
-587 -591 0
-587 -592 0
-587 -593 0
-587 -594 0
-588 -589 0
-588 -590 0
-588 -591 0
-588 -592 0
-588 -593 0
-588 -594 0
-589 -590 0
-589 -591 0
-589 -592 0
-589 -593 0
-589 -594 0
-590 -591 0
-590 -592 0
-590 -593 0
-590 -594 0
-591 -592 0
-591 -593 0
-591 -594 0
-592 -593 0
-592 -594 0
-593 -594 0
595 596 597 598 599 600 601 602 603 0
-595 -596 0
-595 -597 0
-595 -598 0
-595 -599 0
-595 -600 0
-595 -601 0
-595 -602 0
-595 -603 0
-596 -597 0
-596 -598 0
-596 -599 0
-596 -600 0
-596 -601 0
-596 -602 0
-596 -603 0
-597 -598 0
-597 -599 0
-597 -600 0
-597 -601 0
-597 -602 0
-597 -603 0
-598 -599 0
-598 -600 0
-598 -601 0
-598 -602 0
-598 -603 0
-599 -600 0
-599 -601 0
-599 -602 0
-599 -603 0
-600 -601 0
-600 -602 0
-600 -603 0
-601 -602 0
-601 -603 0
-602 -603 0
604 605 606 607 608 609 610 611 612 0
-604 -605 0
-604 -606 0
-604 -607 0
-604 -608 0
-604 -609 0
-604 -610 0
-604 -611 0
-604 -612 0
-605 -606 0
-605 -607 0
-605 -608 0
-605 -609 0
-605 -610 0
-605 -611 0
-605 -612 0
-606 -607 0
-606 -608 0
-606 -609 0
-606 -610 0
-606 -611 0
-606 -612 0
-607 -608 0
-607 -609 0
-607 -610 0
-607 -611 0
-607 -612 0
-608 -609 0
-608 -610 0
-608 -611 0
-608 -612 0
-609 -610 0
-609 -611 0
-609 -612 0
-610 -611 0
-610 -612 0
-611 -612 0
613 614 615 616 617 618 619 620 621 0
-613 -614 0
-613 -615 0
-613 -616 0
-613 -617 0
-613 -618 0
-613 -619 0
-613 -620 0
-613 -621 0
-614 -615 0
-614 -616 0
-614 -617 0
-614 -618 0
-614 -619 0
-614 -620 0
-614 -621 0
-615 -616 0
-615 -617 0
-615 -618 0
-615 -619 0
-615 -620 0
-615 -621 0
-616 -617 0
-616 -618 0
-616 -619 0
-616 -620 0
-616 -621 0
-617 -618 0
-617 -619 0
-617 -620 0
-617 -621 0
-618 -619 0
-618 -620 0
-618 -621 0
-619 -620 0
-619 -621 0
-620 -621 0
622 623 624 625 626 627 628 629 630 0
-622 -623 0
-622 -624 0
-622 -625 0
-622 -626 0
-622 -627 0
-622 -628 0
-622 -629 0
-622 -630 0
-623 -624 0
-623 -625 0
-623 -626 0
-623 -627 0
-623 -628 0
-623 -629 0
-623 -630 0
-624 -625 0
-624 -626 0
-624 -627 0
-624 -628 0
-624 -629 0
-624 -630 0
-625 -626 0
-625 -627 0
-625 -628 0
-625 -629 0
-625 -630 0
-626 -627 0
-626 -628 0
-626 -629 0
-626 -630 0
-627 -628 0
-627 -629 0
-627 -630 0
-628 -629 0
-628 -630 0
-629 -630 0
631 632 633 634 635 636 637 638 639 0
-631 -632 0
-631 -633 0
-631 -634 0
-631 -635 0
-631 -636 0
-631 -637 0
-631 -638 0
-631 -639 0
-632 -633 0
-632 -634 0
-632 -635 0
-632 -636 0
-632 -637 0
-632 -638 0
-632 -639 0
-633 -634 0
-633 -635 0
-633 -636 0
-633 -637 0
-633 -638 0
-633 -639 0
-634 -635 0
-634 -636 0
-634 -637 0
-634 -638 0
-634 -639 0
-635 -636 0
-635 -637 0
-635 -638 0
-635 -639 0
-636 -637 0
-636 -638 0
-636 -639 0
-637 -638 0
-637 -639 0
-638 -639 0
640 641 642 643 644 645 646 647 648 0
-640 -641 0
-640 -642 0
-640 -643 0
-640 -644 0
-640 -645 0
-640 -646 0
-640 -647 0
-640 -648 0
-641 -642 0
-641 -643 0
-641 -644 0
-641 -645 0
-641 -646 0
-641 -647 0
-641 -648 0
-642 -643 0
-642 -644 0
-642 -645 0
-642 -646 0
-642 -647 0
-642 -648 0
-643 -644 0
-643 -645 0
-643 -646 0
-643 -647 0
-643 -648 0
-644 -645 0
-644 -646 0
-644 -647 0
-644 -648 0
-645 -646 0
-645 -647 0
-645 -648 0
-646 -647 0
-646 -648 0
-647 -648 0
649 650 651 652 653 654 655 656 657 0
-649 -650 0
-649 -651 0
-649 -652 0
-649 -653 0
-649 -654 0
-649 -655 0
-649 -656 0
-649 -657 0
-650 -651 0
-650 -652 0
-650 -653 0
-650 -654 0
-650 -655 0
-650 -656 0
-650 -657 0
-651 -652 0
-651 -653 0
-651 -654 0
-651 -655 0
-651 -656 0
-651 -657 0
-652 -653 0
-652 -654 0
-652 -655 0
-652 -656 0
-652 -657 0
-653 -654 0
-653 -655 0
-653 -656 0
-653 -657 0
-654 -655 0
-654 -656 0
-654 -657 0
-655 -656 0
-655 -657 0
-656 -657 0
658 659 660 661 662 663 664 665 666 0
-658 -659 0
-658 -660 0
-658 -661 0
-658 -662 0
-658 -663 0
-658 -664 0
-658 -665 0
-658 -666 0
-659 -660 0
-659 -661 0
-659 -662 0
-659 -663 0
-659 -664 0
-659 -665 0
-659 -666 0
-660 -661 0
-660 -662 0
-660 -663 0
-660 -664 0
-660 -665 0
-660 -666 0
-661 -662 0
-661 -663 0
-661 -664 0
-661 -665 0
-661 -666 0
-662 -663 0
-662 -664 0
-662 -665 0
-662 -666 0
-663 -664 0
-663 -665 0
-663 -666 0
-664 -665 0
-664 -666 0
-665 -666 0
667 668 669 670 671 672 673 674 675 0
-667 -668 0
-667 -669 0
-667 -670 0
-667 -671 0
-667 -672 0
-667 -673 0
-667 -674 0
-667 -675 0
-668 -669 0
-668 -670 0
-668 -671 0
-668 -672 0
-668 -673 0
-668 -674 0
-668 -675 0
-669 -670 0
-669 -671 0
-669 -672 0
-669 -673 0
-669 -674 0
-669 -675 0
-670 -671 0
-670 -672 0
-670 -673 0
-670 -674 0
-670 -675 0
-671 -672 0
-671 -673 0
-671 -674 0
-671 -675 0
-672 -673 0
-672 -674 0
-672 -675 0
-673 -674 0
-673 -675 0
-674 -675 0
676 677 678 679 680 681 682 683 684 0
-676 -677 0
-676 -678 0
-676 -679 0
-676 -680 0
-676 -681 0
-676 -682 0
-676 -683 0
-676 -684 0
-677 -678 0
-677 -679 0
-677 -680 0
-677 -681 0
-677 -682 0
-677 -683 0
-677 -684 0
-678 -679 0
-678 -680 0
-678 -681 0
-678 -682 0
-678 -683 0
-678 -684 0
-679 -680 0
-679 -681 0
-679 -682 0
-679 -683 0
-679 -684 0
-680 -681 0
-680 -682 0
-680 -683 0
-680 -684 0
-681 -682 0
-681 -683 0
-681 -684 0
-682 -683 0
-682 -684 0
-683 -684 0
685 686 687 688 689 690 691 692 693 0
-685 -686 0
-685 -687 0
-685 -688 0
-685 -689 0
-685 -690 0
-685 -691 0
-685 -692 0
-685 -693 0
-686 -687 0
-686 -688 0
-686 -689 0
-686 -690 0
-686 -691 0
-686 -692 0
-686 -693 0
-687 -688 0
-687 -689 0
-687 -690 0
-687 -691 0
-687 -692 0
-687 -693 0
-688 -689 0
-688 -690 0
-688 -691 0
-688 -692 0
-688 -693 0
-689 -690 0
-689 -691 0
-689 -692 0
-689 -693 0
-690 -691 0
-690 -692 0
-690 -693 0
-691 -692 0
-691 -693 0
-692 -693 0
694 695 696 697 698 699 700 701 702 0
-694 -695 0
-694 -696 0
-694 -697 0
-694 -698 0
-694 -699 0
-694 -700 0
-694 -701 0
-694 -702 0
-695 -696 0
-695 -697 0
-695 -698 0
-695 -699 0
-695 -700 0
-695 -701 0
-695 -702 0
-696 -697 0
-696 -698 0
-696 -699 0
-696 -700 0
-696 -701 0
-696 -702 0
-697 -698 0
-697 -699 0
-697 -700 0
-697 -701 0
-697 -702 0
-698 -699 0
-698 -700 0
-698 -701 0
-698 -702 0
-699 -700 0
-699 -701 0
-699 -702 0
-700 -701 0
-700 -702 0
-701 -702 0
703 704 705 706 707 708 709 710 711 0
-703 -704 0
-703 -705 0
-703 -706 0
-703 -707 0
-703 -708 0
-703 -709 0
-703 -710 0
-703 -711 0
-704 -705 0
-704 -706 0
-704 -707 0
-704 -708 0
-704 -709 0
-704 -710 0
-704 -711 0
-705 -706 0
-705 -707 0
-705 -708 0
-705 -709 0
-705 -710 0
-705 -711 0
-706 -707 0
-706 -708 0
-706 -709 0
-706 -710 0
-706 -711 0
-707 -708 0
-707 -709 0
-707 -710 0
-707 -711 0
-708 -709 0
-708 -710 0
-708 -711 0
-709 -710 0
-709 -711 0
-710 -711 0
712 713 714 715 716 717 718 719 720 0
-712 -713 0
-712 -714 0
-712 -715 0
-712 -716 0
-712 -717 0
-712 -718 0
-712 -719 0
-712 -720 0
-713 -714 0
-713 -715 0
-713 -716 0
-713 -717 0
-713 -718 0
-713 -719 0
-713 -720 0
-714 -715 0
-714 -716 0
-714 -717 0
-714 -718 0
-714 -719 0
-714 -720 0
-715 -716 0
-715 -717 0
-715 -718 0
-715 -719 0
-715 -720 0
-716 -717 0
-716 -718 0
-716 -719 0
-716 -720 0
-717 -718 0
-717 -719 0
-717 -720 0
-718 -719 0
-718 -720 0
-719 -720 0
721 722 723 724 725 726 727 728 729 0
-721 -722 0
-721 -723 0
-721 -724 0
-721 -725 0
-721 -726 0
-721 -727 0
-721 -728 0
-721 -729 0
-722 -723 0
-722 -724 0
-722 -725 0
-722 -726 0
-722 -727 0
-722 -728 0
-722 -729 0
-723 -724 0
-723 -725 0
-723 -726 0
-723 -727 0
-723 -728 0
-723 -729 0
-724 -725 0
-724 -726 0
-724 -727 0
-724 -728 0
-724 -729 0
-725 -726 0
-725 -727 0
-725 -728 0
-725 -729 0
-726 -727 0
-726 -728 0
-726 -729 0
-727 -728 0
-727 -729 0
-728 -729 0
730 731 732 733 734 735 736 737 738 0
-730 -731 0
-730 -732 0
-730 -733 0
-730 -734 0
-730 -735 0
-730 -736 0
-730 -737 0
-730 -738 0
-731 -732 0
-731 -733 0
-731 -734 0
-731 -735 0
-731 -736 0
-731 -737 0
-731 -738 0
-732 -733 0
-732 -734 0
-732 -735 0
-732 -736 0
-732 -737 0
-732 -738 0
-733 -734 0
-733 -735 0
-733 -736 0
-733 -737 0
-733 -738 0
-734 -735 0
-734 -736 0
-734 -737 0
-734 -738 0
-735 -736 0
-735 -737 0
-735 -738 0
-736 -737 0
-736 -738 0
-737 -738 0
739 740 741 742 743 744 745 746 747 0
-739 -740 0
-739 -741 0
-739 -742 0
-739 -743 0
-739 -744 0
-739 -745 0
-739 -746 0
-739 -747 0
-740 -741 0
-740 -742 0
-740 -743 0
-740 -744 0
-740 -745 0
-740 -746 0
-740 -747 0
-741 -742 0
-741 -743 0
-741 -744 0
-741 -745 0
-741 -746 0
-741 -747 0
-742 -743 0
-742 -744 0
-742 -745 0
-742 -746 0
-742 -747 0
-743 -744 0
-743 -745 0
-743 -746 0
-743 -747 0
-744 -745 0
-744 -746 0
-744 -747 0
-745 -746 0
-745 -747 0
-746 -747 0
748 749 750 751 752 753 754 755 756 0
-748 -749 0
-748 -750 0
-748 -751 0
-748 -752 0
-748 -753 0
-748 -754 0
-748 -755 0
-748 -756 0
-749 -750 0
-749 -751 0
-749 -752 0
-749 -753 0
-749 -754 0
-749 -755 0
-749 -756 0
-750 -751 0
-750 -752 0
-750 -753 0
-750 -754 0
-750 -755 0
-750 -756 0
-751 -752 0
-751 -753 0
-751 -754 0
-751 -755 0
-751 -756 0
-752 -753 0
-752 -754 0
-752 -755 0
-752 -756 0
-753 -754 0
-753 -755 0
-753 -756 0
-754 -755 0
-754 -756 0
-755 -756 0
757 758 759 760 761 762 763 764 765 0
-757 -758 0
-757 -759 0
-757 -760 0
-757 -761 0
-757 -762 0
-757 -763 0
-757 -764 0
-757 -765 0
-758 -759 0
-758 -760 0
-758 -761 0
-758 -762 0
-758 -763 0
-758 -764 0
-758 -765 0
-759 -760 0
-759 -761 0
-759 -762 0
-759 -763 0
-759 -764 0
-759 -765 0
-760 -761 0
-760 -762 0
-760 -763 0
-760 -764 0
-760 -765 0
-761 -762 0
-761 -763 0
-761 -764 0
-761 -765 0
-762 -763 0
-762 -764 0
-762 -765 0
-763 -764 0
-763 -765 0
-764 -765 0
766 767 768 769 770 771 772 773 774 0
-766 -767 0
-766 -768 0
-766 -769 0
-766 -770 0
-766 -771 0
-766 -772 0
-766 -773 0
-766 -774 0
-767 -768 0
-767 -769 0
-767 -770 0
-767 -771 0
-767 -772 0
-767 -773 0
-767 -774 0
-768 -769 0
-768 -770 0
-768 -771 0
-768 -772 0
-768 -773 0
-768 -774 0
-769 -770 0
-769 -771 0
-769 -772 0
-769 -773 0
-769 -774 0
-770 -771 0
-770 -772 0
-770 -773 0
-770 -774 0
-771 -772 0
-771 -773 0
-771 -774 0
-772 -773 0
-772 -774 0
-773 -774 0
775 776 777 778 779 780 781 782 783 0
-775 -776 0
-775 -777 0
-775 -778 0
-775 -779 0
-775 -780 0
-775 -781 0
-775 -782 0
-775 -783 0
-776 -777 0
-776 -778 0
-776 -779 0
-776 -780 0
-776 -781 0
-776 -782 0
-776 -783 0
-777 -778 0
-777 -779 0
-777 -780 0
-777 -781 0
-777 -782 0
-777 -783 0
-778 -779 0
-778 -780 0
-778 -781 0
-778 -782 0
-778 -783 0
-779 -780 0
-779 -781 0
-779 -782 0
-779 -783 0
-780 -781 0
-780 -782 0
-780 -783 0
-781 -782 0
-781 -783 0
-782 -783 0
784 785 786 787 788 789 790 791 792 0
-784 -785 0
-784 -786 0
-784 -787 0
-784 -788 0
-784 -789 0
-784 -790 0
-784 -791 0
-784 -792 0
-785 -786 0
-785 -787 0
-785 -788 0
-785 -789 0
-785 -790 0
-785 -791 0
-785 -792 0
-786 -787 0
-786 -788 0
-786 -789 0
-786 -790 0
-786 -791 0
-786 -792 0
-787 -788 0
-787 -789 0
-787 -790 0
-787 -791 0
-787 -792 0
-788 -789 0
-788 -790 0
-788 -791 0
-788 -792 0
-789 -790 0
-789 -791 0
-789 -792 0
-790 -791 0
-790 -792 0
-791 -792 0
793 794 795 796 797 798 799 800 801 0
-793 -794 0
-793 -795 0
-793 -796 0
-793 -797 0
-793 -798 0
-793 -799 0
-793 -800 0
-793 -801 0
-794 -795 0
-794 -796 0
-794 -797 0
-794 -798 0
-794 -799 0
-794 -800 0
-794 -801 0
-795 -796 0
-795 -797 0
-795 -798 0
-795 -799 0
-795 -800 0
-795 -801 0
-796 -797 0
-796 -798 0
-796 -799 0
-796 -800 0
-796 -801 0
-797 -798 0
-797 -799 0
-797 -800 0
-797 -801 0
-798 -799 0
-798 -800 0
-798 -801 0
-799 -800 0
-799 -801 0
-800 -801 0
802 803 804 805 806 807 808 809 810 0
-802 -803 0
-802 -804 0
-802 -805 0
-802 -806 0
-802 -807 0
-802 -808 0
-802 -809 0
-802 -810 0
-803 -804 0
-803 -805 0
-803 -806 0
-803 -807 0
-803 -808 0
-803 -809 0
-803 -810 0
-804 -805 0
-804 -806 0
-804 -807 0
-804 -808 0
-804 -809 0
-804 -810 0
-805 -806 0
-805 -807 0
-805 -808 0
-805 -809 0
-805 -810 0
-806 -807 0
-806 -808 0
-806 -809 0
-806 -810 0
-807 -808 0
-807 -809 0
-807 -810 0
-808 -809 0
-808 -810 0
-809 -810 0
811 812 813 814 815 816 817 818 819 0
-811 -812 0
-811 -813 0
-811 -814 0
-811 -815 0
-811 -816 0
-811 -817 0
-811 -818 0
-811 -819 0
-812 -813 0
-812 -814 0
-812 -815 0
-812 -816 0
-812 -817 0
-812 -818 0
-812 -819 0
-813 -814 0
-813 -815 0
-813 -816 0
-813 -817 0
-813 -818 0
-813 -819 0
-814 -815 0
-814 -816 0
-814 -817 0
-814 -818 0
-814 -819 0
-815 -816 0
-815 -817 0
-815 -818 0
-815 -819 0
-816 -817 0
-816 -818 0
-816 -819 0
-817 -818 0
-817 -819 0
-818 -819 0
820 821 822 823 824 825 826 827 828 0
-820 -821 0
-820 -822 0
-820 -823 0
-820 -824 0
-820 -825 0
-820 -826 0
-820 -827 0
-820 -828 0
-821 -822 0
-821 -823 0
-821 -824 0
-821 -825 0
-821 -826 0
-821 -827 0
-821 -828 0
-822 -823 0
-822 -824 0
-822 -825 0
-822 -826 0
-822 -827 0
-822 -828 0
-823 -824 0
-823 -825 0
-823 -826 0
-823 -827 0
-823 -828 0
-824 -825 0
-824 -826 0
-824 -827 0
-824 -828 0
-825 -826 0
-825 -827 0
-825 -828 0
-826 -827 0
-826 -828 0
-827 -828 0
829 830 831 832 833 834 835 836 837 0
-829 -830 0
-829 -831 0
-829 -832 0
-829 -833 0
-829 -834 0
-829 -835 0
-829 -836 0
-829 -837 0
-830 -831 0
-830 -832 0
-830 -833 0
-830 -834 0
-830 -835 0
-830 -836 0
-830 -837 0
-831 -832 0
-831 -833 0
-831 -834 0
-831 -835 0
-831 -836 0
-831 -837 0
-832 -833 0
-832 -834 0
-832 -835 0
-832 -836 0
-832 -837 0
-833 -834 0
-833 -835 0
-833 -836 0
-833 -837 0
-834 -835 0
-834 -836 0
-834 -837 0
-835 -836 0
-835 -837 0
-836 -837 0
838 839 840 841 842 843 844 845 846 0
-838 -839 0
-838 -840 0
-838 -841 0
-838 -842 0
-838 -843 0
-838 -844 0
-838 -845 0
-838 -846 0
-839 -840 0
-839 -841 0
-839 -842 0
-839 -843 0
-839 -844 0
-839 -845 0
-839 -846 0
-840 -841 0
-840 -842 0
-840 -843 0
-840 -844 0
-840 -845 0
-840 -846 0
-841 -842 0
-841 -843 0
-841 -844 0
-841 -845 0
-841 -846 0
-842 -843 0
-842 -844 0
-842 -845 0
-842 -846 0
-843 -844 0
-843 -845 0
-843 -846 0
-844 -845 0
-844 -846 0
-845 -846 0
847 848 849 850 851 852 853 854 855 0
-847 -848 0
-847 -849 0
-847 -850 0
-847 -851 0
-847 -852 0
-847 -853 0
-847 -854 0
-847 -855 0
-848 -849 0
-848 -850 0
-848 -851 0
-848 -852 0
-848 -853 0
-848 -854 0
-848 -855 0
-849 -850 0
-849 -851 0
-849 -852 0
-849 -853 0
-849 -854 0
-849 -855 0
-850 -851 0
-850 -852 0
-850 -853 0
-850 -854 0
-850 -855 0
-851 -852 0
-851 -853 0
-851 -854 0
-851 -855 0
-852 -853 0
-852 -854 0
-852 -855 0
-853 -854 0
-853 -855 0
-854 -855 0
856 857 858 859 860 861 862 863 864 0
-856 -857 0
-856 -858 0
-856 -859 0
-856 -860 0
-856 -861 0
-856 -862 0
-856 -863 0
-856 -864 0
-857 -858 0
-857 -859 0
-857 -860 0
-857 -861 0
-857 -862 0
-857 -863 0
-857 -864 0
-858 -859 0
-858 -860 0
-858 -861 0
-858 -862 0
-858 -863 0
-858 -864 0
-859 -860 0
-859 -861 0
-859 -862 0
-859 -863 0
-859 -864 0
-860 -861 0
-860 -862 0
-860 -863 0
-860 -864 0
-861 -862 0
-861 -863 0
-861 -864 0
-862 -863 0
-862 -864 0
-863 -864 0
865 866 867 868 869 870 871 872 873 0
-865 -866 0
-865 -867 0
-865 -868 0
-865 -869 0
-865 -870 0
-865 -871 0
-865 -872 0
-865 -873 0
-866 -867 0
-866 -868 0
-866 -869 0
-866 -870 0
-866 -871 0
-866 -872 0
-866 -873 0
-867 -868 0
-867 -869 0
-867 -870 0
-867 -871 0
-867 -872 0
-867 -873 0
-868 -869 0
-868 -870 0
-868 -871 0
-868 -872 0
-868 -873 0
-869 -870 0
-869 -871 0
-869 -872 0
-869 -873 0
-870 -871 0
-870 -872 0
-870 -873 0
-871 -872 0
-871 -873 0
-872 -873 0
874 875 876 877 878 879 880 881 882 0
-874 -875 0
-874 -876 0
-874 -877 0
-874 -878 0
-874 -879 0
-874 -880 0
-874 -881 0
-874 -882 0
-875 -876 0
-875 -877 0
-875 -878 0
-875 -879 0
-875 -880 0
-875 -881 0
-875 -882 0
-876 -877 0
-876 -878 0
-876 -879 0
-876 -880 0
-876 -881 0
-876 -882 0
-877 -878 0
-877 -879 0
-877 -880 0
-877 -881 0
-877 -882 0
-878 -879 0
-878 -880 0
-878 -881 0
-878 -882 0
-879 -880 0
-879 -881 0
-879 -882 0
-880 -881 0
-880 -882 0
-881 -882 0
883 884 885 886 887 888 889 890 891 0
-883 -884 0
-883 -885 0
-883 -886 0
-883 -887 0
-883 -888 0
-883 -889 0
-883 -890 0
-883 -891 0
-884 -885 0
-884 -886 0
-884 -887 0
-884 -888 0
-884 -889 0
-884 -890 0
-884 -891 0
-885 -886 0
-885 -887 0
-885 -888 0
-885 -889 0
-885 -890 0
-885 -891 0
-886 -887 0
-886 -888 0
-886 -889 0
-886 -890 0
-886 -891 0
-887 -888 0
-887 -889 0
-887 -890 0
-887 -891 0
-888 -889 0
-888 -890 0
-888 -891 0
-889 -890 0
-889 -891 0
-890 -891 0
892 893 894 895 896 897 898 899 900 0
-892 -893 0
-892 -894 0
-892 -895 0
-892 -896 0
-892 -897 0
-892 -898 0
-892 -899 0
-892 -900 0
-893 -894 0
-893 -895 0
-893 -896 0
-893 -897 0
-893 -898 0
-893 -899 0
-893 -900 0
-894 -895 0
-894 -896 0
-894 -897 0
-894 -898 0
-894 -899 0
-894 -900 0
-895 -896 0
-895 -897 0
-895 -898 0
-895 -899 0
-895 -900 0
-896 -897 0
-896 -898 0
-896 -899 0
-896 -900 0
-897 -898 0
-897 -899 0
-897 -900 0
-898 -899 0
-898 -900 0
-899 -900 0
901 902 903 904 905 906 907 908 909 0
-901 -902 0
-901 -903 0
-901 -904 0
-901 -905 0
-901 -906 0
-901 -907 0
-901 -908 0
-901 -909 0
-902 -903 0
-902 -904 0
-902 -905 0
-902 -906 0
-902 -907 0
-902 -908 0
-902 -909 0
-903 -904 0
-903 -905 0
-903 -906 0
-903 -907 0
-903 -908 0
-903 -909 0
-904 -905 0
-904 -906 0
-904 -907 0
-904 -908 0
-904 -909 0
-905 -906 0
-905 -907 0
-905 -908 0
-905 -909 0
-906 -907 0
-906 -908 0
-906 -909 0
-907 -908 0
-907 -909 0
-908 -909 0
910 911 912 913 914 915 916 917 918 0
-910 -911 0
-910 -912 0
-910 -913 0
-910 -914 0
-910 -915 0
-910 -916 0
-910 -917 0
-910 -918 0
-911 -912 0
-911 -913 0
-911 -914 0
-911 -915 0
-911 -916 0
-911 -917 0
-911 -918 0
-912 -913 0
-912 -914 0
-912 -915 0
-912 -916 0
-912 -917 0
-912 -918 0
-913 -914 0
-913 -915 0
-913 -916 0
-913 -917 0
-913 -918 0
-914 -915 0
-914 -916 0
-914 -917 0
-914 -918 0
-915 -916 0
-915 -917 0
-915 -918 0
-916 -917 0
-916 -918 0
-917 -918 0
919 920 921 922 923 924 925 926 927 0
-919 -920 0
-919 -921 0
-919 -922 0
-919 -923 0
-919 -924 0
-919 -925 0
-919 -926 0
-919 -927 0
-920 -921 0
-920 -922 0
-920 -923 0
-920 -924 0
-920 -925 0
-920 -926 0
-920 -927 0
-921 -922 0
-921 -923 0
-921 -924 0
-921 -925 0
-921 -926 0
-921 -927 0
-922 -923 0
-922 -924 0
-922 -925 0
-922 -926 0
-922 -927 0
-923 -924 0
-923 -925 0
-923 -926 0
-923 -927 0
-924 -925 0
-924 -926 0
-924 -927 0
-925 -926 0
-925 -927 0
-926 -927 0
928 929 930 931 932 933 934 935 936 0
-928 -929 0
-928 -930 0
-928 -931 0
-928 -932 0
-928 -933 0
-928 -934 0
-928 -935 0
-928 -936 0
-929 -930 0
-929 -931 0
-929 -932 0
-929 -933 0
-929 -934 0
-929 -935 0
-929 -936 0
-930 -931 0
-930 -932 0
-930 -933 0
-930 -934 0
-930 -935 0
-930 -936 0
-931 -932 0
-931 -933 0
-931 -934 0
-931 -935 0
-931 -936 0
-932 -933 0
-932 -934 0
-932 -935 0
-932 -936 0
-933 -934 0
-933 -935 0
-933 -936 0
-934 -935 0
-934 -936 0
-935 -936 0
937 938 939 940 941 942 943 944 945 0
-937 -938 0
-937 -939 0
-937 -940 0
-937 -941 0
-937 -942 0
-937 -943 0
-937 -944 0
-937 -945 0
-938 -939 0
-938 -940 0
-938 -941 0
-938 -942 0
-938 -943 0
-938 -944 0
-938 -945 0
-939 -940 0
-939 -941 0
-939 -942 0
-939 -943 0
-939 -944 0
-939 -945 0
-940 -941 0
-940 -942 0
-940 -943 0
-940 -944 0
-940 -945 0
-941 -942 0
-941 -943 0
-941 -944 0
-941 -945 0
-942 -943 0
-942 -944 0
-942 -945 0
-943 -944 0
-943 -945 0
-944 -945 0
946 947 948 949 950 951 952 953 954 0
-946 -947 0
-946 -948 0
-946 -949 0
-946 -950 0
-946 -951 0
-946 -952 0
-946 -953 0
-946 -954 0
-947 -948 0
-947 -949 0
-947 -950 0
-947 -951 0
-947 -952 0
-947 -953 0
-947 -954 0
-948 -949 0
-948 -950 0
-948 -951 0
-948 -952 0
-948 -953 0
-948 -954 0
-949 -950 0
-949 -951 0
-949 -952 0
-949 -953 0
-949 -954 0
-950 -951 0
-950 -952 0
-950 -953 0
-950 -954 0
-951 -952 0
-951 -953 0
-951 -954 0
-952 -953 0
-952 -954 0
-953 -954 0
955 956 957 958 959 960 961 962 963 0
-955 -956 0
-955 -957 0
-955 -958 0
-955 -959 0
-955 -960 0
-955 -961 0
-955 -962 0
-955 -963 0
-956 -957 0
-956 -958 0
-956 -959 0
-956 -960 0
-956 -961 0
-956 -962 0
-956 -963 0
-957 -958 0
-957 -959 0
-957 -960 0
-957 -961 0
-957 -962 0
-957 -963 0
-958 -959 0
-958 -960 0
-958 -961 0
-958 -962 0
-958 -963 0
-959 -960 0
-959 -961 0
-959 -962 0
-959 -963 0
-960 -961 0
-960 -962 0
-960 -963 0
-961 -962 0
-961 -963 0
-962 -963 0
964 965 966 967 968 969 970 971 972 0
-964 -965 0
-964 -966 0
-964 -967 0
-964 -968 0
-964 -969 0
-964 -970 0
-964 -971 0
-964 -972 0
-965 -966 0
-965 -967 0
-965 -968 0
-965 -969 0
-965 -970 0
-965 -971 0
-965 -972 0
-966 -967 0
-966 -968 0
-966 -969 0
-966 -970 0
-966 -971 0
-966 -972 0
-967 -968 0
-967 -969 0
-967 -970 0
-967 -971 0
-967 -972 0
-968 -969 0
-968 -970 0
-968 -971 0
-968 -972 0
-969 -970 0
-969 -971 0
-969 -972 0
-970 -971 0
-970 -972 0
-971 -972 0
973 974 975 976 977 978 979 980 981 0
-973 -974 0
-973 -975 0
-973 -976 0
-973 -977 0
-973 -978 0
-973 -979 0
-973 -980 0
-973 -981 0
-974 -975 0
-974 -976 0
-974 -977 0
-974 -978 0
-974 -979 0
-974 -980 0
-974 -981 0
-975 -976 0
-975 -977 0
-975 -978 0
-975 -979 0
-975 -980 0
-975 -981 0
-976 -977 0
-976 -978 0
-976 -979 0
-976 -980 0
-976 -981 0
-977 -978 0
-977 -979 0
-977 -980 0
-977 -981 0
-978 -979 0
-978 -980 0
-978 -981 0
-979 -980 0
-979 -981 0
-980 -981 0
982 983 984 985 986 987 988 989 990 0
-982 -983 0
-982 -984 0
-982 -985 0
-982 -986 0
-982 -987 0
-982 -988 0
-982 -989 0
-982 -990 0
-983 -984 0
-983 -985 0
-983 -986 0
-983 -987 0
-983 -988 0
-983 -989 0
-983 -990 0
-984 -985 0
-984 -986 0
-984 -987 0
-984 -988 0
-984 -989 0
-984 -990 0
-985 -986 0
-985 -987 0
-985 -988 0
-985 -989 0
-985 -990 0
-986 -987 0
-986 -988 0
-986 -989 0
-986 -990 0
-987 -988 0
-987 -989 0
-987 -990 0
-988 -989 0
-988 -990 0
-989 -990 0
991 992 993 994 995 996 997 998 999 0
-991 -992 0
-991 -993 0
-991 -994 0
-991 -995 0
-991 -996 0
-991 -997 0
-991 -998 0
-991 -999 0
-992 -993 0
-992 -994 0
-992 -995 0
-992 -996 0
-992 -997 0
-992 -998 0
-992 -999 0
-993 -994 0
-993 -995 0
-993 -996 0
-993 -997 0
-993 -998 0
-993 -999 0
-994 -995 0
-994 -996 0
-994 -997 0
-994 -998 0
-994 -999 0
-995 -996 0
-995 -997 0
-995 -998 0
-995 -999 0
-996 -997 0
-996 -998 0
-996 -999 0
-997 -998 0
-997 -999 0
-998 -999 0
1000 1001 1002 1003 1004 1005 1006 1007 1008 0
-1000 -1001 0
-1000 -1002 0
-1000 -1003 0
-1000 -1004 0
-1000 -1005 0
-1000 -1006 0
-1000 -1007 0
-1000 -1008 0
-1001 -1002 0
-1001 -1003 0
-1001 -1004 0
-1001 -1005 0
-1001 -1006 0
-1001 -1007 0
-1001 -1008 0
-1002 -1003 0
-1002 -1004 0
-1002 -1005 0
-1002 -1006 0
-1002 -1007 0
-1002 -1008 0
-1003 -1004 0
-1003 -1005 0
-1003 -1006 0
-1003 -1007 0
-1003 -1008 0
-1004 -1005 0
-1004 -1006 0
-1004 -1007 0
-1004 -1008 0
-1005 -1006 0
-1005 -1007 0
-1005 -1008 0
-1006 -1007 0
-1006 -1008 0
-1007 -1008 0
1009 1010 1011 1012 1013 1014 1015 1016 1017 0
-1009 -1010 0
-1009 -1011 0
-1009 -1012 0
-1009 -1013 0
-1009 -1014 0
-1009 -1015 0
-1009 -1016 0
-1009 -1017 0
-1010 -1011 0
-1010 -1012 0
-1010 -1013 0
-1010 -1014 0
-1010 -1015 0
-1010 -1016 0
-1010 -1017 0
-1011 -1012 0
-1011 -1013 0
-1011 -1014 0
-1011 -1015 0
-1011 -1016 0
-1011 -1017 0
-1012 -1013 0
-1012 -1014 0
-1012 -1015 0
-1012 -1016 0
-1012 -1017 0
-1013 -1014 0
-1013 -1015 0
-1013 -1016 0
-1013 -1017 0
-1014 -1015 0
-1014 -1016 0
-1014 -1017 0
-1015 -1016 0
-1015 -1017 0
-1016 -1017 0
1018 1019 1020 1021 1022 1023 1024 1025 1026 0
-1018 -1019 0
-1018 -1020 0
-1018 -1021 0
-1018 -1022 0
-1018 -1023 0
-1018 -1024 0
-1018 -1025 0
-1018 -1026 0
-1019 -1020 0
-1019 -1021 0
-1019 -1022 0
-1019 -1023 0
-1019 -1024 0
-1019 -1025 0
-1019 -1026 0
-1020 -1021 0
-1020 -1022 0
-1020 -1023 0
-1020 -1024 0
-1020 -1025 0
-1020 -1026 0
-1021 -1022 0
-1021 -1023 0
-1021 -1024 0
-1021 -1025 0
-1021 -1026 0
-1022 -1023 0
-1022 -1024 0
-1022 -1025 0
-1022 -1026 0
-1023 -1024 0
-1023 -1025 0
-1023 -1026 0
-1024 -1025 0
-1024 -1026 0
-1025 -1026 0
1027 1028 1029 1030 1031 1032 1033 1034 1035 0
-1027 -1028 0
-1027 -1029 0
-1027 -1030 0
-1027 -1031 0
-1027 -1032 0
-1027 -1033 0
-1027 -1034 0
-1027 -1035 0
-1028 -1029 0
-1028 -1030 0
-1028 -1031 0
-1028 -1032 0
-1028 -1033 0
-1028 -1034 0
-1028 -1035 0
-1029 -1030 0
-1029 -1031 0
-1029 -1032 0
-1029 -1033 0
-1029 -1034 0
-1029 -1035 0
-1030 -1031 0
-1030 -1032 0
-1030 -1033 0
-1030 -1034 0
-1030 -1035 0
-1031 -1032 0
-1031 -1033 0
-1031 -1034 0
-1031 -1035 0
-1032 -1033 0
-1032 -1034 0
-1032 -1035 0
-1033 -1034 0
-1033 -1035 0
-1034 -1035 0
1036 1037 1038 1039 1040 1041 1042 1043 1044 0
-1036 -1037 0
-1036 -1038 0
-1036 -1039 0
-1036 -1040 0
-1036 -1041 0
-1036 -1042 0
-1036 -1043 0
-1036 -1044 0
-1037 -1038 0
-1037 -1039 0
-1037 -1040 0
-1037 -1041 0
-1037 -1042 0
-1037 -1043 0
-1037 -1044 0
-1038 -1039 0
-1038 -1040 0
-1038 -1041 0
-1038 -1042 0
-1038 -1043 0
-1038 -1044 0
-1039 -1040 0
-1039 -1041 0
-1039 -1042 0
-1039 -1043 0
-1039 -1044 0
-1040 -1041 0
-1040 -1042 0
-1040 -1043 0
-1040 -1044 0
-1041 -1042 0
-1041 -1043 0
-1041 -1044 0
-1042 -1043 0
-1042 -1044 0
-1043 -1044 0
1045 1046 1047 1048 1049 1050 1051 1052 1053 0
-1045 -1046 0
-1045 -1047 0
-1045 -1048 0
-1045 -1049 0
-1045 -1050 0
-1045 -1051 0
-1045 -1052 0
-1045 -1053 0
-1046 -1047 0
-1046 -1048 0
-1046 -1049 0
-1046 -1050 0
-1046 -1051 0
-1046 -1052 0
-1046 -1053 0
-1047 -1048 0
-1047 -1049 0
-1047 -1050 0
-1047 -1051 0
-1047 -1052 0
-1047 -1053 0
-1048 -1049 0
-1048 -1050 0
-1048 -1051 0
-1048 -1052 0
-1048 -1053 0
-1049 -1050 0
-1049 -1051 0
-1049 -1052 0
-1049 -1053 0
-1050 -1051 0
-1050 -1052 0
-1050 -1053 0
-1051 -1052 0
-1051 -1053 0
-1052 -1053 0
1054 1055 1056 1057 1058 1059 1060 1061 1062 0
-1054 -1055 0
-1054 -1056 0
-1054 -1057 0
-1054 -1058 0
-1054 -1059 0
-1054 -1060 0
-1054 -1061 0
-1054 -1062 0
-1055 -1056 0
-1055 -1057 0
-1055 -1058 0
-1055 -1059 0
-1055 -1060 0
-1055 -1061 0
-1055 -1062 0
-1056 -1057 0
-1056 -1058 0
-1056 -1059 0
-1056 -1060 0
-1056 -1061 0
-1056 -1062 0
-1057 -1058 0
-1057 -1059 0
-1057 -1060 0
-1057 -1061 0
-1057 -1062 0
-1058 -1059 0
-1058 -1060 0
-1058 -1061 0
-1058 -1062 0
-1059 -1060 0
-1059 -1061 0
-1059 -1062 0
-1060 -1061 0
-1060 -1062 0
-1061 -1062 0
1063 1064 1065 1066 1067 1068 1069 1070 1071 0
-1063 -1064 0
-1063 -1065 0
-1063 -1066 0
-1063 -1067 0
-1063 -1068 0
-1063 -1069 0
-1063 -1070 0
-1063 -1071 0
-1064 -1065 0
-1064 -1066 0
-1064 -1067 0
-1064 -1068 0
-1064 -1069 0
-1064 -1070 0
-1064 -1071 0
-1065 -1066 0
-1065 -1067 0
-1065 -1068 0
-1065 -1069 0
-1065 -1070 0
-1065 -1071 0
-1066 -1067 0
-1066 -1068 0
-1066 -1069 0
-1066 -1070 0
-1066 -1071 0
-1067 -1068 0
-1067 -1069 0
-1067 -1070 0
-1067 -1071 0
-1068 -1069 0
-1068 -1070 0
-1068 -1071 0
-1069 -1070 0
-1069 -1071 0
-1070 -1071 0
1072 1073 1074 1075 1076 1077 1078 1079 1080 0
-1072 -1073 0
-1072 -1074 0
-1072 -1075 0
-1072 -1076 0
-1072 -1077 0
-1072 -1078 0
-1072 -1079 0
-1072 -1080 0
-1073 -1074 0
-1073 -1075 0
-1073 -1076 0
-1073 -1077 0
-1073 -1078 0
-1073 -1079 0
-1073 -1080 0
-1074 -1075 0
-1074 -1076 0
-1074 -1077 0
-1074 -1078 0
-1074 -1079 0
-1074 -1080 0
-1075 -1076 0
-1075 -1077 0
-1075 -1078 0
-1075 -1079 0
-1075 -1080 0
-1076 -1077 0
-1076 -1078 0
-1076 -1079 0
-1076 -1080 0
-1077 -1078 0
-1077 -1079 0
-1077 -1080 0
-1078 -1079 0
-1078 -1080 0
-1079 -1080 0
1081 1082 1083 1084 1085 1086 1087 1088 1089 0
-1081 -1082 0
-1081 -1083 0
-1081 -1084 0
-1081 -1085 0
-1081 -1086 0
-1081 -1087 0
-1081 -1088 0
-1081 -1089 0
-1082 -1083 0
-1082 -1084 0
-1082 -1085 0
-1082 -1086 0
-1082 -1087 0
-1082 -1088 0
-1082 -1089 0
-1083 -1084 0
-1083 -1085 0
-1083 -1086 0
-1083 -1087 0
-1083 -1088 0
-1083 -1089 0
-1084 -1085 0
-1084 -1086 0
-1084 -1087 0
-1084 -1088 0
-1084 -1089 0
-1085 -1086 0
-1085 -1087 0
-1085 -1088 0
-1085 -1089 0
-1086 -1087 0
-1086 -1088 0
-1086 -1089 0
-1087 -1088 0
-1087 -1089 0
-1088 -1089 0
1090 1091 1092 1093 1094 1095 1096 1097 1098 0
-1090 -1091 0
-1090 -1092 0
-1090 -1093 0
-1090 -1094 0
-1090 -1095 0
-1090 -1096 0
-1090 -1097 0
-1090 -1098 0
-1091 -1092 0
-1091 -1093 0
-1091 -1094 0
-1091 -1095 0
-1091 -1096 0
-1091 -1097 0
-1091 -1098 0
-1092 -1093 0
-1092 -1094 0
-1092 -1095 0
-1092 -1096 0
-1092 -1097 0
-1092 -1098 0
-1093 -1094 0
-1093 -1095 0
-1093 -1096 0
-1093 -1097 0
-1093 -1098 0
-1094 -1095 0
-1094 -1096 0
-1094 -1097 0
-1094 -1098 0
-1095 -1096 0
-1095 -1097 0
-1095 -1098 0
-1096 -1097 0
-1096 -1098 0
-1097 -1098 0
1099 1100 1101 1102 1103 1104 1105 1106 1107 0
-1099 -1100 0
-1099 -1101 0
-1099 -1102 0
-1099 -1103 0
-1099 -1104 0
-1099 -1105 0
-1099 -1106 0
-1099 -1107 0
-1100 -1101 0
-1100 -1102 0
-1100 -1103 0
-1100 -1104 0
-1100 -1105 0
-1100 -1106 0
-1100 -1107 0
-1101 -1102 0
-1101 -1103 0
-1101 -1104 0
-1101 -1105 0
-1101 -1106 0
-1101 -1107 0
-1102 -1103 0
-1102 -1104 0
-1102 -1105 0
-1102 -1106 0
-1102 -1107 0
-1103 -1104 0
-1103 -1105 0
-1103 -1106 0
-1103 -1107 0
-1104 -1105 0
-1104 -1106 0
-1104 -1107 0
-1105 -1106 0
-1105 -1107 0
-1106 -1107 0
1108 1109 1110 1111 1112 1113 1114 1115 1116 0
-1108 -1109 0
-1108 -1110 0
-1108 -1111 0
-1108 -1112 0
-1108 -1113 0
-1108 -1114 0
-1108 -1115 0
-1108 -1116 0
-1109 -1110 0
-1109 -1111 0
-1109 -1112 0
-1109 -1113 0
-1109 -1114 0
-1109 -1115 0
-1109 -1116 0
-1110 -1111 0
-1110 -1112 0
-1110 -1113 0
-1110 -1114 0
-1110 -1115 0
-1110 -1116 0
-1111 -1112 0
-1111 -1113 0
-1111 -1114 0
-1111 -1115 0
-1111 -1116 0
-1112 -1113 0
-1112 -1114 0
-1112 -1115 0
-1112 -1116 0
-1113 -1114 0
-1113 -1115 0
-1113 -1116 0
-1114 -1115 0
-1114 -1116 0
-1115 -1116 0
1117 1118 1119 1120 1121 1122 1123 1124 1125 0
-1117 -1118 0
-1117 -1119 0
-1117 -1120 0
-1117 -1121 0
-1117 -1122 0
-1117 -1123 0
-1117 -1124 0
-1117 -1125 0
-1118 -1119 0
-1118 -1120 0
-1118 -1121 0
-1118 -1122 0
-1118 -1123 0
-1118 -1124 0
-1118 -1125 0
-1119 -1120 0
-1119 -1121 0
-1119 -1122 0
-1119 -1123 0
-1119 -1124 0
-1119 -1125 0
-1120 -1121 0
-1120 -1122 0
-1120 -1123 0
-1120 -1124 0
-1120 -1125 0
-1121 -1122 0
-1121 -1123 0
-1121 -1124 0
-1121 -1125 0
-1122 -1123 0
-1122 -1124 0
-1122 -1125 0
-1123 -1124 0
-1123 -1125 0
-1124 -1125 0
1126 1127 1128 1129 1130 1131 1132 1133 1134 0
-1126 -1127 0
-1126 -1128 0
-1126 -1129 0
-1126 -1130 0
-1126 -1131 0
-1126 -1132 0
-1126 -1133 0
-1126 -1134 0
-1127 -1128 0
-1127 -1129 0
-1127 -1130 0
-1127 -1131 0
-1127 -1132 0
-1127 -1133 0
-1127 -1134 0
-1128 -1129 0
-1128 -1130 0
-1128 -1131 0
-1128 -1132 0
-1128 -1133 0
-1128 -1134 0
-1129 -1130 0
-1129 -1131 0
-1129 -1132 0
-1129 -1133 0
-1129 -1134 0
-1130 -1131 0
-1130 -1132 0
-1130 -1133 0
-1130 -1134 0
-1131 -1132 0
-1131 -1133 0
-1131 -1134 0
-1132 -1133 0
-1132 -1134 0
-1133 -1134 0
1135 1136 1137 1138 1139 1140 1141 1142 1143 0
-1135 -1136 0
-1135 -1137 0
-1135 -1138 0
-1135 -1139 0
-1135 -1140 0
-1135 -1141 0
-1135 -1142 0
-1135 -1143 0
-1136 -1137 0
-1136 -1138 0
-1136 -1139 0
-1136 -1140 0
-1136 -1141 0
-1136 -1142 0
-1136 -1143 0
-1137 -1138 0
-1137 -1139 0
-1137 -1140 0
-1137 -1141 0
-1137 -1142 0
-1137 -1143 0
-1138 -1139 0
-1138 -1140 0
-1138 -1141 0
-1138 -1142 0
-1138 -1143 0
-1139 -1140 0
-1139 -1141 0
-1139 -1142 0
-1139 -1143 0
-1140 -1141 0
-1140 -1142 0
-1140 -1143 0
-1141 -1142 0
-1141 -1143 0
-1142 -1143 0
1144 1145 1146 1147 1148 1149 1150 1151 1152 0
-1144 -1145 0
-1144 -1146 0
-1144 -1147 0
-1144 -1148 0
-1144 -1149 0
-1144 -1150 0
-1144 -1151 0
-1144 -1152 0
-1145 -1146 0
-1145 -1147 0
-1145 -1148 0
-1145 -1149 0
-1145 -1150 0
-1145 -1151 0
-1145 -1152 0
-1146 -1147 0
-1146 -1148 0
-1146 -1149 0
-1146 -1150 0
-1146 -1151 0
-1146 -1152 0
-1147 -1148 0
-1147 -1149 0
-1147 -1150 0
-1147 -1151 0
-1147 -1152 0
-1148 -1149 0
-1148 -1150 0
-1148 -1151 0
-1148 -1152 0
-1149 -1150 0
-1149 -1151 0
-1149 -1152 0
-1150 -1151 0
-1150 -1152 0
-1151 -1152 0
1153 1154 1155 1156 1157 1158 1159 1160 1161 0
-1153 -1154 0
-1153 -1155 0
-1153 -1156 0
-1153 -1157 0
-1153 -1158 0
-1153 -1159 0
-1153 -1160 0
-1153 -1161 0
-1154 -1155 0
-1154 -1156 0
-1154 -1157 0
-1154 -1158 0
-1154 -1159 0
-1154 -1160 0
-1154 -1161 0
-1155 -1156 0
-1155 -1157 0
-1155 -1158 0
-1155 -1159 0
-1155 -1160 0
-1155 -1161 0
-1156 -1157 0
-1156 -1158 0
-1156 -1159 0
-1156 -1160 0
-1156 -1161 0
-1157 -1158 0
-1157 -1159 0
-1157 -1160 0
-1157 -1161 0
-1158 -1159 0
-1158 -1160 0
-1158 -1161 0
-1159 -1160 0
-1159 -1161 0
-1160 -1161 0
1162 1163 1164 1165 1166 1167 1168 1169 1170 0
-1162 -1163 0
-1162 -1164 0
-1162 -1165 0
-1162 -1166 0
-1162 -1167 0
-1162 -1168 0
-1162 -1169 0
-1162 -1170 0
-1163 -1164 0
-1163 -1165 0
-1163 -1166 0
-1163 -1167 0
-1163 -1168 0
-1163 -1169 0
-1163 -1170 0
-1164 -1165 0
-1164 -1166 0
-1164 -1167 0
-1164 -1168 0
-1164 -1169 0
-1164 -1170 0
-1165 -1166 0
-1165 -1167 0
-1165 -1168 0
-1165 -1169 0
-1165 -1170 0
-1166 -1167 0
-1166 -1168 0
-1166 -1169 0
-1166 -1170 0
-1167 -1168 0
-1167 -1169 0
-1167 -1170 0
-1168 -1169 0
-1168 -1170 0
-1169 -1170 0
1171 1172 1173 1174 1175 1176 1177 1178 1179 0
-1171 -1172 0
-1171 -1173 0
-1171 -1174 0
-1171 -1175 0
-1171 -1176 0
-1171 -1177 0
-1171 -1178 0
-1171 -1179 0
-1172 -1173 0
-1172 -1174 0
-1172 -1175 0
-1172 -1176 0
-1172 -1177 0
-1172 -1178 0
-1172 -1179 0
-1173 -1174 0
-1173 -1175 0
-1173 -1176 0
-1173 -1177 0
-1173 -1178 0
-1173 -1179 0
-1174 -1175 0
-1174 -1176 0
-1174 -1177 0
-1174 -1178 0
-1174 -1179 0
-1175 -1176 0
-1175 -1177 0
-1175 -1178 0
-1175 -1179 0
-1176 -1177 0
-1176 -1178 0
-1176 -1179 0
-1177 -1178 0
-1177 -1179 0
-1178 -1179 0
1180 1181 1182 1183 1184 1185 1186 1187 1188 0
-1180 -1181 0
-1180 -1182 0
-1180 -1183 0
-1180 -1184 0
-1180 -1185 0
-1180 -1186 0
-1180 -1187 0
-1180 -1188 0
-1181 -1182 0
-1181 -1183 0
-1181 -1184 0
-1181 -1185 0
-1181 -1186 0
-1181 -1187 0
-1181 -1188 0
-1182 -1183 0
-1182 -1184 0
-1182 -1185 0
-1182 -1186 0
-1182 -1187 0
-1182 -1188 0
-1183 -1184 0
-1183 -1185 0
-1183 -1186 0
-1183 -1187 0
-1183 -1188 0
-1184 -1185 0
-1184 -1186 0
-1184 -1187 0
-1184 -1188 0
-1185 -1186 0
-1185 -1187 0
-1185 -1188 0
-1186 -1187 0
-1186 -1188 0
-1187 -1188 0
1189 1190 1191 1192 1193 1194 1195 1196 1197 0
-1189 -1190 0
-1189 -1191 0
-1189 -1192 0
-1189 -1193 0
-1189 -1194 0
-1189 -1195 0
-1189 -1196 0
-1189 -1197 0
-1190 -1191 0
-1190 -1192 0
-1190 -1193 0
-1190 -1194 0
-1190 -1195 0
-1190 -1196 0
-1190 -1197 0
-1191 -1192 0
-1191 -1193 0
-1191 -1194 0
-1191 -1195 0
-1191 -1196 0
-1191 -1197 0
-1192 -1193 0
-1192 -1194 0
-1192 -1195 0
-1192 -1196 0
-1192 -1197 0
-1193 -1194 0
-1193 -1195 0
-1193 -1196 0
-1193 -1197 0
-1194 -1195 0
-1194 -1196 0
-1194 -1197 0
-1195 -1196 0
-1195 -1197 0
-1196 -1197 0
1198 1199 1200 1201 1202 1203 1204 1205 1206 0
-1198 -1199 0
-1198 -1200 0
-1198 -1201 0
-1198 -1202 0
-1198 -1203 0
-1198 -1204 0
-1198 -1205 0
-1198 -1206 0
-1199 -1200 0
-1199 -1201 0
-1199 -1202 0
-1199 -1203 0
-1199 -1204 0
-1199 -1205 0
-1199 -1206 0
-1200 -1201 0
-1200 -1202 0
-1200 -1203 0
-1200 -1204 0
-1200 -1205 0
-1200 -1206 0
-1201 -1202 0
-1201 -1203 0
-1201 -1204 0
-1201 -1205 0
-1201 -1206 0
-1202 -1203 0
-1202 -1204 0
-1202 -1205 0
-1202 -1206 0
-1203 -1204 0
-1203 -1205 0
-1203 -1206 0
-1204 -1205 0
-1204 -1206 0
-1205 -1206 0
1207 1208 1209 1210 1211 1212 1213 1214 1215 0
-1207 -1208 0
-1207 -1209 0
-1207 -1210 0
-1207 -1211 0
-1207 -1212 0
-1207 -1213 0
-1207 -1214 0
-1207 -1215 0
-1208 -1209 0
-1208 -1210 0
-1208 -1211 0
-1208 -1212 0
-1208 -1213 0
-1208 -1214 0
-1208 -1215 0
-1209 -1210 0
-1209 -1211 0
-1209 -1212 0
-1209 -1213 0
-1209 -1214 0
-1209 -1215 0
-1210 -1211 0
-1210 -1212 0
-1210 -1213 0
-1210 -1214 0
-1210 -1215 0
-1211 -1212 0
-1211 -1213 0
-1211 -1214 0
-1211 -1215 0
-1212 -1213 0
-1212 -1214 0
-1212 -1215 0
-1213 -1214 0
-1213 -1215 0
-1214 -1215 0
1216 1217 1218 1219 1220 1221 1222 1223 1224 0
-1216 -1217 0
-1216 -1218 0
-1216 -1219 0
-1216 -1220 0
-1216 -1221 0
-1216 -1222 0
-1216 -1223 0
-1216 -1224 0
-1217 -1218 0
-1217 -1219 0
-1217 -1220 0
-1217 -1221 0
-1217 -1222 0
-1217 -1223 0
-1217 -1224 0
-1218 -1219 0
-1218 -1220 0
-1218 -1221 0
-1218 -1222 0
-1218 -1223 0
-1218 -1224 0
-1219 -1220 0
-1219 -1221 0
-1219 -1222 0
-1219 -1223 0
-1219 -1224 0
-1220 -1221 0
-1220 -1222 0
-1220 -1223 0
-1220 -1224 0
-1221 -1222 0
-1221 -1223 0
-1221 -1224 0
-1222 -1223 0
-1222 -1224 0
-1223 -1224 0
1225 1226 1227 1228 1229 1230 1231 1232 1233 0
-1225 -1226 0
-1225 -1227 0
-1225 -1228 0
-1225 -1229 0
-1225 -1230 0
-1225 -1231 0
-1225 -1232 0
-1225 -1233 0
-1226 -1227 0
-1226 -1228 0
-1226 -1229 0
-1226 -1230 0
-1226 -1231 0
-1226 -1232 0
-1226 -1233 0
-1227 -1228 0
-1227 -1229 0
-1227 -1230 0
-1227 -1231 0
-1227 -1232 0
-1227 -1233 0
-1228 -1229 0
-1228 -1230 0
-1228 -1231 0
-1228 -1232 0
-1228 -1233 0
-1229 -1230 0
-1229 -1231 0
-1229 -1232 0
-1229 -1233 0
-1230 -1231 0
-1230 -1232 0
-1230 -1233 0
-1231 -1232 0
-1231 -1233 0
-1232 -1233 0
1234 1235 1236 1237 1238 1239 1240 1241 1242 0
-1234 -1235 0
-1234 -1236 0
-1234 -1237 0
-1234 -1238 0
-1234 -1239 0
-1234 -1240 0
-1234 -1241 0
-1234 -1242 0
-1235 -1236 0
-1235 -1237 0
-1235 -1238 0
-1235 -1239 0
-1235 -1240 0
-1235 -1241 0
-1235 -1242 0
-1236 -1237 0
-1236 -1238 0
-1236 -1239 0
-1236 -1240 0
-1236 -1241 0
-1236 -1242 0
-1237 -1238 0
-1237 -1239 0
-1237 -1240 0
-1237 -1241 0
-1237 -1242 0
-1238 -1239 0
-1238 -1240 0
-1238 -1241 0
-1238 -1242 0
-1239 -1240 0
-1239 -1241 0
-1239 -1242 0
-1240 -1241 0
-1240 -1242 0
-1241 -1242 0
1243 1244 1245 1246 1247 1248 1249 1250 1251 0
-1243 -1244 0
-1243 -1245 0
-1243 -1246 0
-1243 -1247 0
-1243 -1248 0
-1243 -1249 0
-1243 -1250 0
-1243 -1251 0
-1244 -1245 0
-1244 -1246 0
-1244 -1247 0
-1244 -1248 0
-1244 -1249 0
-1244 -1250 0
-1244 -1251 0
-1245 -1246 0
-1245 -1247 0
-1245 -1248 0
-1245 -1249 0
-1245 -1250 0
-1245 -1251 0
-1246 -1247 0
-1246 -1248 0
-1246 -1249 0
-1246 -1250 0
-1246 -1251 0
-1247 -1248 0
-1247 -1249 0
-1247 -1250 0
-1247 -1251 0
-1248 -1249 0
-1248 -1250 0
-1248 -1251 0
-1249 -1250 0
-1249 -1251 0
-1250 -1251 0
1252 1253 1254 1255 1256 1257 1258 1259 1260 0
-1252 -1253 0
-1252 -1254 0
-1252 -1255 0
-1252 -1256 0
-1252 -1257 0
-1252 -1258 0
-1252 -1259 0
-1252 -1260 0
-1253 -1254 0
-1253 -1255 0
-1253 -1256 0
-1253 -1257 0
-1253 -1258 0
-1253 -1259 0
-1253 -1260 0
-1254 -1255 0
-1254 -1256 0
-1254 -1257 0
-1254 -1258 0
-1254 -1259 0
-1254 -1260 0
-1255 -1256 0
-1255 -1257 0
-1255 -1258 0
-1255 -1259 0
-1255 -1260 0
-1256 -1257 0
-1256 -1258 0
-1256 -1259 0
-1256 -1260 0
-1257 -1258 0
-1257 -1259 0
-1257 -1260 0
-1258 -1259 0
-1258 -1260 0
-1259 -1260 0
1261 1262 1263 1264 1265 1266 1267 1268 1269 0
-1261 -1262 0
-1261 -1263 0
-1261 -1264 0
-1261 -1265 0
-1261 -1266 0
-1261 -1267 0
-1261 -1268 0
-1261 -1269 0
-1262 -1263 0
-1262 -1264 0
-1262 -1265 0
-1262 -1266 0
-1262 -1267 0
-1262 -1268 0
-1262 -1269 0
-1263 -1264 0
-1263 -1265 0
-1263 -1266 0
-1263 -1267 0
-1263 -1268 0
-1263 -1269 0
-1264 -1265 0
-1264 -1266 0
-1264 -1267 0
-1264 -1268 0
-1264 -1269 0
-1265 -1266 0
-1265 -1267 0
-1265 -1268 0
-1265 -1269 0
-1266 -1267 0
-1266 -1268 0
-1266 -1269 0
-1267 -1268 0
-1267 -1269 0
-1268 -1269 0
1270 1271 1272 1273 1274 1275 1276 1277 1278 0
-1270 -1271 0
-1270 -1272 0
-1270 -1273 0
-1270 -1274 0
-1270 -1275 0
-1270 -1276 0
-1270 -1277 0
-1270 -1278 0
-1271 -1272 0
-1271 -1273 0
-1271 -1274 0
-1271 -1275 0
-1271 -1276 0
-1271 -1277 0
-1271 -1278 0
-1272 -1273 0
-1272 -1274 0
-1272 -1275 0
-1272 -1276 0
-1272 -1277 0
-1272 -1278 0
-1273 -1274 0
-1273 -1275 0
-1273 -1276 0
-1273 -1277 0
-1273 -1278 0
-1274 -1275 0
-1274 -1276 0
-1274 -1277 0
-1274 -1278 0
-1275 -1276 0
-1275 -1277 0
-1275 -1278 0
-1276 -1277 0
-1276 -1278 0
-1277 -1278 0
1279 1280 1281 1282 1283 1284 1285 1286 1287 0
-1279 -1280 0
-1279 -1281 0
-1279 -1282 0
-1279 -1283 0
-1279 -1284 0
-1279 -1285 0
-1279 -1286 0
-1279 -1287 0
-1280 -1281 0
-1280 -1282 0
-1280 -1283 0
-1280 -1284 0
-1280 -1285 0
-1280 -1286 0
-1280 -1287 0
-1281 -1282 0
-1281 -1283 0
-1281 -1284 0
-1281 -1285 0
-1281 -1286 0
-1281 -1287 0
-1282 -1283 0
-1282 -1284 0
-1282 -1285 0
-1282 -1286 0
-1282 -1287 0
-1283 -1284 0
-1283 -1285 0
-1283 -1286 0
-1283 -1287 0
-1284 -1285 0
-1284 -1286 0
-1284 -1287 0
-1285 -1286 0
-1285 -1287 0
-1286 -1287 0
1288 1289 1290 1291 1292 1293 1294 1295 1296 0
-1288 -1289 0
-1288 -1290 0
-1288 -1291 0
-1288 -1292 0
-1288 -1293 0
-1288 -1294 0
-1288 -1295 0
-1288 -1296 0
-1289 -1290 0
-1289 -1291 0
-1289 -1292 0
-1289 -1293 0
-1289 -1294 0
-1289 -1295 0
-1289 -1296 0
-1290 -1291 0
-1290 -1292 0
-1290 -1293 0
-1290 -1294 0
-1290 -1295 0
-1290 -1296 0
-1291 -1292 0
-1291 -1293 0
-1291 -1294 0
-1291 -1295 0
-1291 -1296 0
-1292 -1293 0
-1292 -1294 0
-1292 -1295 0
-1292 -1296 0
-1293 -1294 0
-1293 -1295 0
-1293 -1296 0
-1294 -1295 0
-1294 -1296 0
-1295 -1296 0
1297 1298 1299 1300 1301 1302 1303 1304 1305 0
-1297 -1298 0
-1297 -1299 0
-1297 -1300 0
-1297 -1301 0
-1297 -1302 0
-1297 -1303 0
-1297 -1304 0
-1297 -1305 0
-1298 -1299 0
-1298 -1300 0
-1298 -1301 0
-1298 -1302 0
-1298 -1303 0
-1298 -1304 0
-1298 -1305 0
-1299 -1300 0
-1299 -1301 0
-1299 -1302 0
-1299 -1303 0
-1299 -1304 0
-1299 -1305 0
-1300 -1301 0
-1300 -1302 0
-1300 -1303 0
-1300 -1304 0
-1300 -1305 0
-1301 -1302 0
-1301 -1303 0
-1301 -1304 0
-1301 -1305 0
-1302 -1303 0
-1302 -1304 0
-1302 -1305 0
-1303 -1304 0
-1303 -1305 0
-1304 -1305 0
1306 1307 1308 1309 1310 1311 1312 1313 1314 0
-1306 -1307 0
-1306 -1308 0
-1306 -1309 0
-1306 -1310 0
-1306 -1311 0
-1306 -1312 0
-1306 -1313 0
-1306 -1314 0
-1307 -1308 0
-1307 -1309 0
-1307 -1310 0
-1307 -1311 0
-1307 -1312 0
-1307 -1313 0
-1307 -1314 0
-1308 -1309 0
-1308 -1310 0
-1308 -1311 0
-1308 -1312 0
-1308 -1313 0
-1308 -1314 0
-1309 -1310 0
-1309 -1311 0
-1309 -1312 0
-1309 -1313 0
-1309 -1314 0
-1310 -1311 0
-1310 -1312 0
-1310 -1313 0
-1310 -1314 0
-1311 -1312 0
-1311 -1313 0
-1311 -1314 0
-1312 -1313 0
-1312 -1314 0
-1313 -1314 0
1315 1316 1317 1318 1319 1320 1321 1322 1323 0
-1315 -1316 0
-1315 -1317 0
-1315 -1318 0
-1315 -1319 0
-1315 -1320 0
-1315 -1321 0
-1315 -1322 0
-1315 -1323 0
-1316 -1317 0
-1316 -1318 0
-1316 -1319 0
-1316 -1320 0
-1316 -1321 0
-1316 -1322 0
-1316 -1323 0
-1317 -1318 0
-1317 -1319 0
-1317 -1320 0
-1317 -1321 0
-1317 -1322 0
-1317 -1323 0
-1318 -1319 0
-1318 -1320 0
-1318 -1321 0
-1318 -1322 0
-1318 -1323 0
-1319 -1320 0
-1319 -1321 0
-1319 -1322 0
-1319 -1323 0
-1320 -1321 0
-1320 -1322 0
-1320 -1323 0
-1321 -1322 0
-1321 -1323 0
-1322 -1323 0
1324 1325 1326 1327 1328 1329 1330 1331 1332 0
-1324 -1325 0
-1324 -1326 0
-1324 -1327 0
-1324 -1328 0
-1324 -1329 0
-1324 -1330 0
-1324 -1331 0
-1324 -1332 0
-1325 -1326 0
-1325 -1327 0
-1325 -1328 0
-1325 -1329 0
-1325 -1330 0
-1325 -1331 0
-1325 -1332 0
-1326 -1327 0
-1326 -1328 0
-1326 -1329 0
-1326 -1330 0
-1326 -1331 0
-1326 -1332 0
-1327 -1328 0
-1327 -1329 0
-1327 -1330 0
-1327 -1331 0
-1327 -1332 0
-1328 -1329 0
-1328 -1330 0
-1328 -1331 0
-1328 -1332 0
-1329 -1330 0
-1329 -1331 0
-1329 -1332 0
-1330 -1331 0
-1330 -1332 0
-1331 -1332 0
1333 1334 1335 1336 1337 1338 1339 1340 1341 0
-1333 -1334 0
-1333 -1335 0
-1333 -1336 0
-1333 -1337 0
-1333 -1338 0
-1333 -1339 0
-1333 -1340 0
-1333 -1341 0
-1334 -1335 0
-1334 -1336 0
-1334 -1337 0
-1334 -1338 0
-1334 -1339 0
-1334 -1340 0
-1334 -1341 0
-1335 -1336 0
-1335 -1337 0
-1335 -1338 0
-1335 -1339 0
-1335 -1340 0
-1335 -1341 0
-1336 -1337 0
-1336 -1338 0
-1336 -1339 0
-1336 -1340 0
-1336 -1341 0
-1337 -1338 0
-1337 -1339 0
-1337 -1340 0
-1337 -1341 0
-1338 -1339 0
-1338 -1340 0
-1338 -1341 0
-1339 -1340 0
-1339 -1341 0
-1340 -1341 0
1342 1343 1344 1345 1346 1347 1348 1349 1350 0
-1342 -1343 0
-1342 -1344 0
-1342 -1345 0
-1342 -1346 0
-1342 -1347 0
-1342 -1348 0
-1342 -1349 0
-1342 -1350 0
-1343 -1344 0
-1343 -1345 0
-1343 -1346 0
-1343 -1347 0
-1343 -1348 0
-1343 -1349 0
-1343 -1350 0
-1344 -1345 0
-1344 -1346 0
-1344 -1347 0
-1344 -1348 0
-1344 -1349 0
-1344 -1350 0
-1345 -1346 0
-1345 -1347 0
-1345 -1348 0
-1345 -1349 0
-1345 -1350 0
-1346 -1347 0
-1346 -1348 0
-1346 -1349 0
-1346 -1350 0
-1347 -1348 0
-1347 -1349 0
-1347 -1350 0
-1348 -1349 0
-1348 -1350 0
-1349 -1350 0
1351 1352 1353 1354 1355 1356 1357 1358 1359 0
-1351 -1352 0
-1351 -1353 0
-1351 -1354 0
-1351 -1355 0
-1351 -1356 0
-1351 -1357 0
-1351 -1358 0
-1351 -1359 0
-1352 -1353 0
-1352 -1354 0
-1352 -1355 0
-1352 -1356 0
-1352 -1357 0
-1352 -1358 0
-1352 -1359 0
-1353 -1354 0
-1353 -1355 0
-1353 -1356 0
-1353 -1357 0
-1353 -1358 0
-1353 -1359 0
-1354 -1355 0
-1354 -1356 0
-1354 -1357 0
-1354 -1358 0
-1354 -1359 0
-1355 -1356 0
-1355 -1357 0
-1355 -1358 0
-1355 -1359 0
-1356 -1357 0
-1356 -1358 0
-1356 -1359 0
-1357 -1358 0
-1357 -1359 0
-1358 -1359 0
1360 1361 1362 1363 1364 1365 1366 1367 1368 0
-1360 -1361 0
-1360 -1362 0
-1360 -1363 0
-1360 -1364 0
-1360 -1365 0
-1360 -1366 0
-1360 -1367 0
-1360 -1368 0
-1361 -1362 0
-1361 -1363 0
-1361 -1364 0
-1361 -1365 0
-1361 -1366 0
-1361 -1367 0
-1361 -1368 0
-1362 -1363 0
-1362 -1364 0
-1362 -1365 0
-1362 -1366 0
-1362 -1367 0
-1362 -1368 0
-1363 -1364 0
-1363 -1365 0
-1363 -1366 0
-1363 -1367 0
-1363 -1368 0
-1364 -1365 0
-1364 -1366 0
-1364 -1367 0
-1364 -1368 0
-1365 -1366 0
-1365 -1367 0
-1365 -1368 0
-1366 -1367 0
-1366 -1368 0
-1367 -1368 0
1369 1370 1371 1372 1373 1374 1375 1376 1377 0
-1369 -1370 0
-1369 -1371 0
-1369 -1372 0
-1369 -1373 0
-1369 -1374 0
-1369 -1375 0
-1369 -1376 0
-1369 -1377 0
-1370 -1371 0
-1370 -1372 0
-1370 -1373 0
-1370 -1374 0
-1370 -1375 0
-1370 -1376 0
-1370 -1377 0
-1371 -1372 0
-1371 -1373 0
-1371 -1374 0
-1371 -1375 0
-1371 -1376 0
-1371 -1377 0
-1372 -1373 0
-1372 -1374 0
-1372 -1375 0
-1372 -1376 0
-1372 -1377 0
-1373 -1374 0
-1373 -1375 0
-1373 -1376 0
-1373 -1377 0
-1374 -1375 0
-1374 -1376 0
-1374 -1377 0
-1375 -1376 0
-1375 -1377 0
-1376 -1377 0
1378 1379 1380 1381 1382 1383 1384 1385 1386 0
-1378 -1379 0
-1378 -1380 0
-1378 -1381 0
-1378 -1382 0
-1378 -1383 0
-1378 -1384 0
-1378 -1385 0
-1378 -1386 0
-1379 -1380 0
-1379 -1381 0
-1379 -1382 0
-1379 -1383 0
-1379 -1384 0
-1379 -1385 0
-1379 -1386 0
-1380 -1381 0
-1380 -1382 0
-1380 -1383 0
-1380 -1384 0
-1380 -1385 0
-1380 -1386 0
-1381 -1382 0
-1381 -1383 0
-1381 -1384 0
-1381 -1385 0
-1381 -1386 0
-1382 -1383 0
-1382 -1384 0
-1382 -1385 0
-1382 -1386 0
-1383 -1384 0
-1383 -1385 0
-1383 -1386 0
-1384 -1385 0
-1384 -1386 0
-1385 -1386 0
1387 1388 1389 1390 1391 1392 1393 1394 1395 0
-1387 -1388 0
-1387 -1389 0
-1387 -1390 0
-1387 -1391 0
-1387 -1392 0
-1387 -1393 0
-1387 -1394 0
-1387 -1395 0
-1388 -1389 0
-1388 -1390 0
-1388 -1391 0
-1388 -1392 0
-1388 -1393 0
-1388 -1394 0
-1388 -1395 0
-1389 -1390 0
-1389 -1391 0
-1389 -1392 0
-1389 -1393 0
-1389 -1394 0
-1389 -1395 0
-1390 -1391 0
-1390 -1392 0
-1390 -1393 0
-1390 -1394 0
-1390 -1395 0
-1391 -1392 0
-1391 -1393 0
-1391 -1394 0
-1391 -1395 0
-1392 -1393 0
-1392 -1394 0
-1392 -1395 0
-1393 -1394 0
-1393 -1395 0
-1394 -1395 0
1396 1397 1398 1399 1400 1401 1402 1403 1404 0
-1396 -1397 0
-1396 -1398 0
-1396 -1399 0
-1396 -1400 0
-1396 -1401 0
-1396 -1402 0
-1396 -1403 0
-1396 -1404 0
-1397 -1398 0
-1397 -1399 0
-1397 -1400 0
-1397 -1401 0
-1397 -1402 0
-1397 -1403 0
-1397 -1404 0
-1398 -1399 0
-1398 -1400 0
-1398 -1401 0
-1398 -1402 0
-1398 -1403 0
-1398 -1404 0
-1399 -1400 0
-1399 -1401 0
-1399 -1402 0
-1399 -1403 0
-1399 -1404 0
-1400 -1401 0
-1400 -1402 0
-1400 -1403 0
-1400 -1404 0
-1401 -1402 0
-1401 -1403 0
-1401 -1404 0
-1402 -1403 0
-1402 -1404 0
-1403 -1404 0
1405 1406 1407 1408 1409 1410 1411 1412 1413 0
-1405 -1406 0
-1405 -1407 0
-1405 -1408 0
-1405 -1409 0
-1405 -1410 0
-1405 -1411 0
-1405 -1412 0
-1405 -1413 0
-1406 -1407 0
-1406 -1408 0
-1406 -1409 0
-1406 -1410 0
-1406 -1411 0
-1406 -1412 0
-1406 -1413 0
-1407 -1408 0
-1407 -1409 0
-1407 -1410 0
-1407 -1411 0
-1407 -1412 0
-1407 -1413 0
-1408 -1409 0
-1408 -1410 0
-1408 -1411 0
-1408 -1412 0
-1408 -1413 0
-1409 -1410 0
-1409 -1411 0
-1409 -1412 0
-1409 -1413 0
-1410 -1411 0
-1410 -1412 0
-1410 -1413 0
-1411 -1412 0
-1411 -1413 0
-1412 -1413 0
1414 1415 1416 1417 1418 1419 1420 1421 1422 0
-1414 -1415 0
-1414 -1416 0
-1414 -1417 0
-1414 -1418 0
-1414 -1419 0
-1414 -1420 0
-1414 -1421 0
-1414 -1422 0
-1415 -1416 0
-1415 -1417 0
-1415 -1418 0
-1415 -1419 0
-1415 -1420 0
-1415 -1421 0
-1415 -1422 0
-1416 -1417 0
-1416 -1418 0
-1416 -1419 0
-1416 -1420 0
-1416 -1421 0
-1416 -1422 0
-1417 -1418 0
-1417 -1419 0
-1417 -1420 0
-1417 -1421 0
-1417 -1422 0
-1418 -1419 0
-1418 -1420 0
-1418 -1421 0
-1418 -1422 0
-1419 -1420 0
-1419 -1421 0
-1419 -1422 0
-1420 -1421 0
-1420 -1422 0
-1421 -1422 0
1423 1424 1425 1426 1427 1428 1429 1430 1431 0
-1423 -1424 0
-1423 -1425 0
-1423 -1426 0
-1423 -1427 0
-1423 -1428 0
-1423 -1429 0
-1423 -1430 0
-1423 -1431 0
-1424 -1425 0
-1424 -1426 0
-1424 -1427 0
-1424 -1428 0
-1424 -1429 0
-1424 -1430 0
-1424 -1431 0
-1425 -1426 0
-1425 -1427 0
-1425 -1428 0
-1425 -1429 0
-1425 -1430 0
-1425 -1431 0
-1426 -1427 0
-1426 -1428 0
-1426 -1429 0
-1426 -1430 0
-1426 -1431 0
-1427 -1428 0
-1427 -1429 0
-1427 -1430 0
-1427 -1431 0
-1428 -1429 0
-1428 -1430 0
-1428 -1431 0
-1429 -1430 0
-1429 -1431 0
-1430 -1431 0
1432 1433 1434 1435 1436 1437 1438 1439 1440 0
-1432 -1433 0
-1432 -1434 0
-1432 -1435 0
-1432 -1436 0
-1432 -1437 0
-1432 -1438 0
-1432 -1439 0
-1432 -1440 0
-1433 -1434 0
-1433 -1435 0
-1433 -1436 0
-1433 -1437 0
-1433 -1438 0
-1433 -1439 0
-1433 -1440 0
-1434 -1435 0
-1434 -1436 0
-1434 -1437 0
-1434 -1438 0
-1434 -1439 0
-1434 -1440 0
-1435 -1436 0
-1435 -1437 0
-1435 -1438 0
-1435 -1439 0
-1435 -1440 0
-1436 -1437 0
-1436 -1438 0
-1436 -1439 0
-1436 -1440 0
-1437 -1438 0
-1437 -1439 0
-1437 -1440 0
-1438 -1439 0
-1438 -1440 0
-1439 -1440 0
1441 1442 1443 1444 1445 1446 1447 1448 1449 0
-1441 -1442 0
-1441 -1443 0
-1441 -1444 0
-1441 -1445 0
-1441 -1446 0
-1441 -1447 0
-1441 -1448 0
-1441 -1449 0
-1442 -1443 0
-1442 -1444 0
-1442 -1445 0
-1442 -1446 0
-1442 -1447 0
-1442 -1448 0
-1442 -1449 0
-1443 -1444 0
-1443 -1445 0
-1443 -1446 0
-1443 -1447 0
-1443 -1448 0
-1443 -1449 0
-1444 -1445 0
-1444 -1446 0
-1444 -1447 0
-1444 -1448 0
-1444 -1449 0
-1445 -1446 0
-1445 -1447 0
-1445 -1448 0
-1445 -1449 0
-1446 -1447 0
-1446 -1448 0
-1446 -1449 0
-1447 -1448 0
-1447 -1449 0
-1448 -1449 0
1450 1451 1452 1453 1454 1455 1456 1457 1458 0
-1450 -1451 0
-1450 -1452 0
-1450 -1453 0
-1450 -1454 0
-1450 -1455 0
-1450 -1456 0
-1450 -1457 0
-1450 -1458 0
-1451 -1452 0
-1451 -1453 0
-1451 -1454 0
-1451 -1455 0
-1451 -1456 0
-1451 -1457 0
-1451 -1458 0
-1452 -1453 0
-1452 -1454 0
-1452 -1455 0
-1452 -1456 0
-1452 -1457 0
-1452 -1458 0
-1453 -1454 0
-1453 -1455 0
-1453 -1456 0
-1453 -1457 0
-1453 -1458 0
-1454 -1455 0
-1454 -1456 0
-1454 -1457 0
-1454 -1458 0
-1455 -1456 0
-1455 -1457 0
-1455 -1458 0
-1456 -1457 0
-1456 -1458 0
-1457 -1458 0
1459 1460 1461 1462 1463 1464 1465 1466 1467 0
-1459 -1460 0
-1459 -1461 0
-1459 -1462 0
-1459 -1463 0
-1459 -1464 0
-1459 -1465 0
-1459 -1466 0
-1459 -1467 0
-1460 -1461 0
-1460 -1462 0
-1460 -1463 0
-1460 -1464 0
-1460 -1465 0
-1460 -1466 0
-1460 -1467 0
-1461 -1462 0
-1461 -1463 0
-1461 -1464 0
-1461 -1465 0
-1461 -1466 0
-1461 -1467 0
-1462 -1463 0
-1462 -1464 0
-1462 -1465 0
-1462 -1466 0
-1462 -1467 0
-1463 -1464 0
-1463 -1465 0
-1463 -1466 0
-1463 -1467 0
-1464 -1465 0
-1464 -1466 0
-1464 -1467 0
-1465 -1466 0
-1465 -1467 0
-1466 -1467 0
1468 1469 1470 1471 1472 1473 1474 1475 1476 0
-1468 -1469 0
-1468 -1470 0
-1468 -1471 0
-1468 -1472 0
-1468 -1473 0
-1468 -1474 0
-1468 -1475 0
-1468 -1476 0
-1469 -1470 0
-1469 -1471 0
-1469 -1472 0
-1469 -1473 0
-1469 -1474 0
-1469 -1475 0
-1469 -1476 0
-1470 -1471 0
-1470 -1472 0
-1470 -1473 0
-1470 -1474 0
-1470 -1475 0
-1470 -1476 0
-1471 -1472 0
-1471 -1473 0
-1471 -1474 0
-1471 -1475 0
-1471 -1476 0
-1472 -1473 0
-1472 -1474 0
-1472 -1475 0
-1472 -1476 0
-1473 -1474 0
-1473 -1475 0
-1473 -1476 0
-1474 -1475 0
-1474 -1476 0
-1475 -1476 0
1477 1478 1479 1480 1481 1482 1483 1484 1485 0
-1477 -1478 0
-1477 -1479 0
-1477 -1480 0
-1477 -1481 0
-1477 -1482 0
-1477 -1483 0
-1477 -1484 0
-1477 -1485 0
-1478 -1479 0
-1478 -1480 0
-1478 -1481 0
-1478 -1482 0
-1478 -1483 0
-1478 -1484 0
-1478 -1485 0
-1479 -1480 0
-1479 -1481 0
-1479 -1482 0
-1479 -1483 0
-1479 -1484 0
-1479 -1485 0
-1480 -1481 0
-1480 -1482 0
-1480 -1483 0
-1480 -1484 0
-1480 -1485 0
-1481 -1482 0
-1481 -1483 0
-1481 -1484 0
-1481 -1485 0
-1482 -1483 0
-1482 -1484 0
-1482 -1485 0
-1483 -1484 0
-1483 -1485 0
-1484 -1485 0
1486 1487 1488 1489 1490 1491 1492 1493 1494 0
-1486 -1487 0
-1486 -1488 0
-1486 -1489 0
-1486 -1490 0
-1486 -1491 0
-1486 -1492 0
-1486 -1493 0
-1486 -1494 0
-1487 -1488 0
-1487 -1489 0
-1487 -1490 0
-1487 -1491 0
-1487 -1492 0
-1487 -1493 0
-1487 -1494 0
-1488 -1489 0
-1488 -1490 0
-1488 -1491 0
-1488 -1492 0
-1488 -1493 0
-1488 -1494 0
-1489 -1490 0
-1489 -1491 0
-1489 -1492 0
-1489 -1493 0
-1489 -1494 0
-1490 -1491 0
-1490 -1492 0
-1490 -1493 0
-1490 -1494 0
-1491 -1492 0
-1491 -1493 0
-1491 -1494 0
-1492 -1493 0
-1492 -1494 0
-1493 -1494 0
1495 1496 1497 1498 1499 1500 1501 1502 1503 0
-1495 -1496 0
-1495 -1497 0
-1495 -1498 0
-1495 -1499 0
-1495 -1500 0
-1495 -1501 0
-1495 -1502 0
-1495 -1503 0
-1496 -1497 0
-1496 -1498 0
-1496 -1499 0
-1496 -1500 0
-1496 -1501 0
-1496 -1502 0
-1496 -1503 0
-1497 -1498 0
-1497 -1499 0
-1497 -1500 0
-1497 -1501 0
-1497 -1502 0
-1497 -1503 0
-1498 -1499 0
-1498 -1500 0
-1498 -1501 0
-1498 -1502 0
-1498 -1503 0
-1499 -1500 0
-1499 -1501 0
-1499 -1502 0
-1499 -1503 0
-1500 -1501 0
-1500 -1502 0
-1500 -1503 0
-1501 -1502 0
-1501 -1503 0
-1502 -1503 0
1504 1505 1506 1507 1508 1509 1510 1511 1512 0
-1504 -1505 0
-1504 -1506 0
-1504 -1507 0
-1504 -1508 0
-1504 -1509 0
-1504 -1510 0
-1504 -1511 0
-1504 -1512 0
-1505 -1506 0
-1505 -1507 0
-1505 -1508 0
-1505 -1509 0
-1505 -1510 0
-1505 -1511 0
-1505 -1512 0
-1506 -1507 0
-1506 -1508 0
-1506 -1509 0
-1506 -1510 0
-1506 -1511 0
-1506 -1512 0
-1507 -1508 0
-1507 -1509 0
-1507 -1510 0
-1507 -1511 0
-1507 -1512 0
-1508 -1509 0
-1508 -1510 0
-1508 -1511 0
-1508 -1512 0
-1509 -1510 0
-1509 -1511 0
-1509 -1512 0
-1510 -1511 0
-1510 -1512 0
-1511 -1512 0
1513 1514 1515 1516 1517 1518 1519 1520 1521 0
-1513 -1514 0
-1513 -1515 0
-1513 -1516 0
-1513 -1517 0
-1513 -1518 0
-1513 -1519 0
-1513 -1520 0
-1513 -1521 0
-1514 -1515 0
-1514 -1516 0
-1514 -1517 0
-1514 -1518 0
-1514 -1519 0
-1514 -1520 0
-1514 -1521 0
-1515 -1516 0
-1515 -1517 0
-1515 -1518 0
-1515 -1519 0
-1515 -1520 0
-1515 -1521 0
-1516 -1517 0
-1516 -1518 0
-1516 -1519 0
-1516 -1520 0
-1516 -1521 0
-1517 -1518 0
-1517 -1519 0
-1517 -1520 0
-1517 -1521 0
-1518 -1519 0
-1518 -1520 0
-1518 -1521 0
-1519 -1520 0
-1519 -1521 0
-1520 -1521 0
1522 1523 1524 1525 1526 1527 1528 1529 1530 0
-1522 -1523 0
-1522 -1524 0
-1522 -1525 0
-1522 -1526 0
-1522 -1527 0
-1522 -1528 0
-1522 -1529 0
-1522 -1530 0
-1523 -1524 0
-1523 -1525 0
-1523 -1526 0
-1523 -1527 0
-1523 -1528 0
-1523 -1529 0
-1523 -1530 0
-1524 -1525 0
-1524 -1526 0
-1524 -1527 0
-1524 -1528 0
-1524 -1529 0
-1524 -1530 0
-1525 -1526 0
-1525 -1527 0
-1525 -1528 0
-1525 -1529 0
-1525 -1530 0
-1526 -1527 0
-1526 -1528 0
-1526 -1529 0
-1526 -1530 0
-1527 -1528 0
-1527 -1529 0
-1527 -1530 0
-1528 -1529 0
-1528 -1530 0
-1529 -1530 0
1531 1532 1533 1534 1535 1536 1537 1538 1539 0
-1531 -1532 0
-1531 -1533 0
-1531 -1534 0
-1531 -1535 0
-1531 -1536 0
-1531 -1537 0
-1531 -1538 0
-1531 -1539 0
-1532 -1533 0
-1532 -1534 0
-1532 -1535 0
-1532 -1536 0
-1532 -1537 0
-1532 -1538 0
-1532 -1539 0
-1533 -1534 0
-1533 -1535 0
-1533 -1536 0
-1533 -1537 0
-1533 -1538 0
-1533 -1539 0
-1534 -1535 0
-1534 -1536 0
-1534 -1537 0
-1534 -1538 0
-1534 -1539 0
-1535 -1536 0
-1535 -1537 0
-1535 -1538 0
-1535 -1539 0
-1536 -1537 0
-1536 -1538 0
-1536 -1539 0
-1537 -1538 0
-1537 -1539 0
-1538 -1539 0
1540 1541 1542 1543 1544 1545 1546 1547 1548 0
-1540 -1541 0
-1540 -1542 0
-1540 -1543 0
-1540 -1544 0
-1540 -1545 0
-1540 -1546 0
-1540 -1547 0
-1540 -1548 0
-1541 -1542 0
-1541 -1543 0
-1541 -1544 0
-1541 -1545 0
-1541 -1546 0
-1541 -1547 0
-1541 -1548 0
-1542 -1543 0
-1542 -1544 0
-1542 -1545 0
-1542 -1546 0
-1542 -1547 0
-1542 -1548 0
-1543 -1544 0
-1543 -1545 0
-1543 -1546 0
-1543 -1547 0
-1543 -1548 0
-1544 -1545 0
-1544 -1546 0
-1544 -1547 0
-1544 -1548 0
-1545 -1546 0
-1545 -1547 0
-1545 -1548 0
-1546 -1547 0
-1546 -1548 0
-1547 -1548 0
1549 1550 1551 1552 1553 1554 1555 1556 1557 0
-1549 -1550 0
-1549 -1551 0
-1549 -1552 0
-1549 -1553 0
-1549 -1554 0
-1549 -1555 0
-1549 -1556 0
-1549 -1557 0
-1550 -1551 0
-1550 -1552 0
-1550 -1553 0
-1550 -1554 0
-1550 -1555 0
-1550 -1556 0
-1550 -1557 0
-1551 -1552 0
-1551 -1553 0
-1551 -1554 0
-1551 -1555 0
-1551 -1556 0
-1551 -1557 0
-1552 -1553 0
-1552 -1554 0
-1552 -1555 0
-1552 -1556 0
-1552 -1557 0
-1553 -1554 0
-1553 -1555 0
-1553 -1556 0
-1553 -1557 0
-1554 -1555 0
-1554 -1556 0
-1554 -1557 0
-1555 -1556 0
-1555 -1557 0
-1556 -1557 0
1558 1559 1560 1561 1562 1563 1564 1565 1566 0
-1558 -1559 0
-1558 -1560 0
-1558 -1561 0
-1558 -1562 0
-1558 -1563 0
-1558 -1564 0
-1558 -1565 0
-1558 -1566 0
-1559 -1560 0
-1559 -1561 0
-1559 -1562 0
-1559 -1563 0
-1559 -1564 0
-1559 -1565 0
-1559 -1566 0
-1560 -1561 0
-1560 -1562 0
-1560 -1563 0
-1560 -1564 0
-1560 -1565 0
-1560 -1566 0
-1561 -1562 0
-1561 -1563 0
-1561 -1564 0
-1561 -1565 0
-1561 -1566 0
-1562 -1563 0
-1562 -1564 0
-1562 -1565 0
-1562 -1566 0
-1563 -1564 0
-1563 -1565 0
-1563 -1566 0
-1564 -1565 0
-1564 -1566 0
-1565 -1566 0
1567 1568 1569 1570 1571 1572 1573 1574 1575 0
-1567 -1568 0
-1567 -1569 0
-1567 -1570 0
-1567 -1571 0
-1567 -1572 0
-1567 -1573 0
-1567 -1574 0
-1567 -1575 0
-1568 -1569 0
-1568 -1570 0
-1568 -1571 0
-1568 -1572 0
-1568 -1573 0
-1568 -1574 0
-1568 -1575 0
-1569 -1570 0
-1569 -1571 0
-1569 -1572 0
-1569 -1573 0
-1569 -1574 0
-1569 -1575 0
-1570 -1571 0
-1570 -1572 0
-1570 -1573 0
-1570 -1574 0
-1570 -1575 0
-1571 -1572 0
-1571 -1573 0
-1571 -1574 0
-1571 -1575 0
-1572 -1573 0
-1572 -1574 0
-1572 -1575 0
-1573 -1574 0
-1573 -1575 0
-1574 -1575 0
1576 1577 1578 1579 1580 1581 1582 1583 1584 0
-1576 -1577 0
-1576 -1578 0
-1576 -1579 0
-1576 -1580 0
-1576 -1581 0
-1576 -1582 0
-1576 -1583 0
-1576 -1584 0
-1577 -1578 0
-1577 -1579 0
-1577 -1580 0
-1577 -1581 0
-1577 -1582 0
-1577 -1583 0
-1577 -1584 0
-1578 -1579 0
-1578 -1580 0
-1578 -1581 0
-1578 -1582 0
-1578 -1583 0
-1578 -1584 0
-1579 -1580 0
-1579 -1581 0
-1579 -1582 0
-1579 -1583 0
-1579 -1584 0
-1580 -1581 0
-1580 -1582 0
-1580 -1583 0
-1580 -1584 0
-1581 -1582 0
-1581 -1583 0
-1581 -1584 0
-1582 -1583 0
-1582 -1584 0
-1583 -1584 0
1585 1586 1587 1588 1589 1590 1591 1592 1593 0
-1585 -1586 0
-1585 -1587 0
-1585 -1588 0
-1585 -1589 0
-1585 -1590 0
-1585 -1591 0
-1585 -1592 0
-1585 -1593 0
-1586 -1587 0
-1586 -1588 0
-1586 -1589 0
-1586 -1590 0
-1586 -1591 0
-1586 -1592 0
-1586 -1593 0
-1587 -1588 0
-1587 -1589 0
-1587 -1590 0
-1587 -1591 0
-1587 -1592 0
-1587 -1593 0
-1588 -1589 0
-1588 -1590 0
-1588 -1591 0
-1588 -1592 0
-1588 -1593 0
-1589 -1590 0
-1589 -1591 0
-1589 -1592 0
-1589 -1593 0
-1590 -1591 0
-1590 -1592 0
-1590 -1593 0
-1591 -1592 0
-1591 -1593 0
-1592 -1593 0
1594 1595 1596 1597 1598 1599 1600 1601 1602 0
-1594 -1595 0
-1594 -1596 0
-1594 -1597 0
-1594 -1598 0
-1594 -1599 0
-1594 -1600 0
-1594 -1601 0
-1594 -1602 0
-1595 -1596 0
-1595 -1597 0
-1595 -1598 0
-1595 -1599 0
-1595 -1600 0
-1595 -1601 0
-1595 -1602 0
-1596 -1597 0
-1596 -1598 0
-1596 -1599 0
-1596 -1600 0
-1596 -1601 0
-1596 -1602 0
-1597 -1598 0
-1597 -1599 0
-1597 -1600 0
-1597 -1601 0
-1597 -1602 0
-1598 -1599 0
-1598 -1600 0
-1598 -1601 0
-1598 -1602 0
-1599 -1600 0
-1599 -1601 0
-1599 -1602 0
-1600 -1601 0
-1600 -1602 0
-1601 -1602 0
1603 1604 1605 1606 1607 1608 1609 1610 1611 0
-1603 -1604 0
-1603 -1605 0
-1603 -1606 0
-1603 -1607 0
-1603 -1608 0
-1603 -1609 0
-1603 -1610 0
-1603 -1611 0
-1604 -1605 0
-1604 -1606 0
-1604 -1607 0
-1604 -1608 0
-1604 -1609 0
-1604 -1610 0
-1604 -1611 0
-1605 -1606 0
-1605 -1607 0
-1605 -1608 0
-1605 -1609 0
-1605 -1610 0
-1605 -1611 0
-1606 -1607 0
-1606 -1608 0
-1606 -1609 0
-1606 -1610 0
-1606 -1611 0
-1607 -1608 0
-1607 -1609 0
-1607 -1610 0
-1607 -1611 0
-1608 -1609 0
-1608 -1610 0
-1608 -1611 0
-1609 -1610 0
-1609 -1611 0
-1610 -1611 0
1612 1613 1614 1615 1616 1617 1618 1619 1620 0
-1612 -1613 0
-1612 -1614 0
-1612 -1615 0
-1612 -1616 0
-1612 -1617 0
-1612 -1618 0
-1612 -1619 0
-1612 -1620 0
-1613 -1614 0
-1613 -1615 0
-1613 -1616 0
-1613 -1617 0
-1613 -1618 0
-1613 -1619 0
-1613 -1620 0
-1614 -1615 0
-1614 -1616 0
-1614 -1617 0
-1614 -1618 0
-1614 -1619 0
-1614 -1620 0
-1615 -1616 0
-1615 -1617 0
-1615 -1618 0
-1615 -1619 0
-1615 -1620 0
-1616 -1617 0
-1616 -1618 0
-1616 -1619 0
-1616 -1620 0
-1617 -1618 0
-1617 -1619 0
-1617 -1620 0
-1618 -1619 0
-1618 -1620 0
-1619 -1620 0
1621 1622 1623 1624 1625 1626 1627 1628 1629 0
-1621 -1622 0
-1621 -1623 0
-1621 -1624 0
-1621 -1625 0
-1621 -1626 0
-1621 -1627 0
-1621 -1628 0
-1621 -1629 0
-1622 -1623 0
-1622 -1624 0
-1622 -1625 0
-1622 -1626 0
-1622 -1627 0
-1622 -1628 0
-1622 -1629 0
-1623 -1624 0
-1623 -1625 0
-1623 -1626 0
-1623 -1627 0
-1623 -1628 0
-1623 -1629 0
-1624 -1625 0
-1624 -1626 0
-1624 -1627 0
-1624 -1628 0
-1624 -1629 0
-1625 -1626 0
-1625 -1627 0
-1625 -1628 0
-1625 -1629 0
-1626 -1627 0
-1626 -1628 0
-1626 -1629 0
-1627 -1628 0
-1627 -1629 0
-1628 -1629 0
1630 1631 1632 1633 1634 1635 1636 1637 1638 0
-1630 -1631 0
-1630 -1632 0
-1630 -1633 0
-1630 -1634 0
-1630 -1635 0
-1630 -1636 0
-1630 -1637 0
-1630 -1638 0
-1631 -1632 0
-1631 -1633 0
-1631 -1634 0
-1631 -1635 0
-1631 -1636 0
-1631 -1637 0
-1631 -1638 0
-1632 -1633 0
-1632 -1634 0
-1632 -1635 0
-1632 -1636 0
-1632 -1637 0
-1632 -1638 0
-1633 -1634 0
-1633 -1635 0
-1633 -1636 0
-1633 -1637 0
-1633 -1638 0
-1634 -1635 0
-1634 -1636 0
-1634 -1637 0
-1634 -1638 0
-1635 -1636 0
-1635 -1637 0
-1635 -1638 0
-1636 -1637 0
-1636 -1638 0
-1637 -1638 0
1639 1640 1641 1642 1643 1644 1645 1646 1647 0
-1639 -1640 0
-1639 -1641 0
-1639 -1642 0
-1639 -1643 0
-1639 -1644 0
-1639 -1645 0
-1639 -1646 0
-1639 -1647 0
-1640 -1641 0
-1640 -1642 0
-1640 -1643 0
-1640 -1644 0
-1640 -1645 0
-1640 -1646 0
-1640 -1647 0
-1641 -1642 0
-1641 -1643 0
-1641 -1644 0
-1641 -1645 0
-1641 -1646 0
-1641 -1647 0
-1642 -1643 0
-1642 -1644 0
-1642 -1645 0
-1642 -1646 0
-1642 -1647 0
-1643 -1644 0
-1643 -1645 0
-1643 -1646 0
-1643 -1647 0
-1644 -1645 0
-1644 -1646 0
-1644 -1647 0
-1645 -1646 0
-1645 -1647 0
-1646 -1647 0
1648 1649 1650 1651 1652 1653 1654 1655 1656 0
-1648 -1649 0
-1648 -1650 0
-1648 -1651 0
-1648 -1652 0
-1648 -1653 0
-1648 -1654 0
-1648 -1655 0
-1648 -1656 0
-1649 -1650 0
-1649 -1651 0
-1649 -1652 0
-1649 -1653 0
-1649 -1654 0
-1649 -1655 0
-1649 -1656 0
-1650 -1651 0
-1650 -1652 0
-1650 -1653 0
-1650 -1654 0
-1650 -1655 0
-1650 -1656 0
-1651 -1652 0
-1651 -1653 0
-1651 -1654 0
-1651 -1655 0
-1651 -1656 0
-1652 -1653 0
-1652 -1654 0
-1652 -1655 0
-1652 -1656 0
-1653 -1654 0
-1653 -1655 0
-1653 -1656 0
-1654 -1655 0
-1654 -1656 0
-1655 -1656 0
1657 1658 1659 1660 1661 1662 1663 1664 1665 0
-1657 -1658 0
-1657 -1659 0
-1657 -1660 0
-1657 -1661 0
-1657 -1662 0
-1657 -1663 0
-1657 -1664 0
-1657 -1665 0
-1658 -1659 0
-1658 -1660 0
-1658 -1661 0
-1658 -1662 0
-1658 -1663 0
-1658 -1664 0
-1658 -1665 0
-1659 -1660 0
-1659 -1661 0
-1659 -1662 0
-1659 -1663 0
-1659 -1664 0
-1659 -1665 0
-1660 -1661 0
-1660 -1662 0
-1660 -1663 0
-1660 -1664 0
-1660 -1665 0
-1661 -1662 0
-1661 -1663 0
-1661 -1664 0
-1661 -1665 0
-1662 -1663 0
-1662 -1664 0
-1662 -1665 0
-1663 -1664 0
-1663 -1665 0
-1664 -1665 0
1666 1667 1668 1669 1670 1671 1672 1673 1674 0
-1666 -1667 0
-1666 -1668 0
-1666 -1669 0
-1666 -1670 0
-1666 -1671 0
-1666 -1672 0
-1666 -1673 0
-1666 -1674 0
-1667 -1668 0
-1667 -1669 0
-1667 -1670 0
-1667 -1671 0
-1667 -1672 0
-1667 -1673 0
-1667 -1674 0
-1668 -1669 0
-1668 -1670 0
-1668 -1671 0
-1668 -1672 0
-1668 -1673 0
-1668 -1674 0
-1669 -1670 0
-1669 -1671 0
-1669 -1672 0
-1669 -1673 0
-1669 -1674 0
-1670 -1671 0
-1670 -1672 0
-1670 -1673 0
-1670 -1674 0
-1671 -1672 0
-1671 -1673 0
-1671 -1674 0
-1672 -1673 0
-1672 -1674 0
-1673 -1674 0
1675 1676 1677 1678 1679 1680 1681 1682 1683 0
-1675 -1676 0
-1675 -1677 0
-1675 -1678 0
-1675 -1679 0
-1675 -1680 0
-1675 -1681 0
-1675 -1682 0
-1675 -1683 0
-1676 -1677 0
-1676 -1678 0
-1676 -1679 0
-1676 -1680 0
-1676 -1681 0
-1676 -1682 0
-1676 -1683 0
-1677 -1678 0
-1677 -1679 0
-1677 -1680 0
-1677 -1681 0
-1677 -1682 0
-1677 -1683 0
-1678 -1679 0
-1678 -1680 0
-1678 -1681 0
-1678 -1682 0
-1678 -1683 0
-1679 -1680 0
-1679 -1681 0
-1679 -1682 0
-1679 -1683 0
-1680 -1681 0
-1680 -1682 0
-1680 -1683 0
-1681 -1682 0
-1681 -1683 0
-1682 -1683 0
1684 1685 1686 1687 1688 1689 1690 1691 1692 0
-1684 -1685 0
-1684 -1686 0
-1684 -1687 0
-1684 -1688 0
-1684 -1689 0
-1684 -1690 0
-1684 -1691 0
-1684 -1692 0
-1685 -1686 0
-1685 -1687 0
-1685 -1688 0
-1685 -1689 0
-1685 -1690 0
-1685 -1691 0
-1685 -1692 0
-1686 -1687 0
-1686 -1688 0
-1686 -1689 0
-1686 -1690 0
-1686 -1691 0
-1686 -1692 0
-1687 -1688 0
-1687 -1689 0
-1687 -1690 0
-1687 -1691 0
-1687 -1692 0
-1688 -1689 0
-1688 -1690 0
-1688 -1691 0
-1688 -1692 0
-1689 -1690 0
-1689 -1691 0
-1689 -1692 0
-1690 -1691 0
-1690 -1692 0
-1691 -1692 0
1693 1694 1695 1696 1697 1698 1699 1700 1701 0
-1693 -1694 0
-1693 -1695 0
-1693 -1696 0
-1693 -1697 0
-1693 -1698 0
-1693 -1699 0
-1693 -1700 0
-1693 -1701 0
-1694 -1695 0
-1694 -1696 0
-1694 -1697 0
-1694 -1698 0
-1694 -1699 0
-1694 -1700 0
-1694 -1701 0
-1695 -1696 0
-1695 -1697 0
-1695 -1698 0
-1695 -1699 0
-1695 -1700 0
-1695 -1701 0
-1696 -1697 0
-1696 -1698 0
-1696 -1699 0
-1696 -1700 0
-1696 -1701 0
-1697 -1698 0
-1697 -1699 0
-1697 -1700 0
-1697 -1701 0
-1698 -1699 0
-1698 -1700 0
-1698 -1701 0
-1699 -1700 0
-1699 -1701 0
-1700 -1701 0
1702 1703 1704 1705 1706 1707 1708 1709 1710 0
-1702 -1703 0
-1702 -1704 0
-1702 -1705 0
-1702 -1706 0
-1702 -1707 0
-1702 -1708 0
-1702 -1709 0
-1702 -1710 0
-1703 -1704 0
-1703 -1705 0
-1703 -1706 0
-1703 -1707 0
-1703 -1708 0
-1703 -1709 0
-1703 -1710 0
-1704 -1705 0
-1704 -1706 0
-1704 -1707 0
-1704 -1708 0
-1704 -1709 0
-1704 -1710 0
-1705 -1706 0
-1705 -1707 0
-1705 -1708 0
-1705 -1709 0
-1705 -1710 0
-1706 -1707 0
-1706 -1708 0
-1706 -1709 0
-1706 -1710 0
-1707 -1708 0
-1707 -1709 0
-1707 -1710 0
-1708 -1709 0
-1708 -1710 0
-1709 -1710 0
1711 1712 1713 1714 1715 1716 1717 1718 1719 0
-1711 -1712 0
-1711 -1713 0
-1711 -1714 0
-1711 -1715 0
-1711 -1716 0
-1711 -1717 0
-1711 -1718 0
-1711 -1719 0
-1712 -1713 0
-1712 -1714 0
-1712 -1715 0
-1712 -1716 0
-1712 -1717 0
-1712 -1718 0
-1712 -1719 0
-1713 -1714 0
-1713 -1715 0
-1713 -1716 0
-1713 -1717 0
-1713 -1718 0
-1713 -1719 0
-1714 -1715 0
-1714 -1716 0
-1714 -1717 0
-1714 -1718 0
-1714 -1719 0
-1715 -1716 0
-1715 -1717 0
-1715 -1718 0
-1715 -1719 0
-1716 -1717 0
-1716 -1718 0
-1716 -1719 0
-1717 -1718 0
-1717 -1719 0
-1718 -1719 0
1720 1721 1722 1723 1724 1725 1726 1727 1728 0
-1720 -1721 0
-1720 -1722 0
-1720 -1723 0
-1720 -1724 0
-1720 -1725 0
-1720 -1726 0
-1720 -1727 0
-1720 -1728 0
-1721 -1722 0
-1721 -1723 0
-1721 -1724 0
-1721 -1725 0
-1721 -1726 0
-1721 -1727 0
-1721 -1728 0
-1722 -1723 0
-1722 -1724 0
-1722 -1725 0
-1722 -1726 0
-1722 -1727 0
-1722 -1728 0
-1723 -1724 0
-1723 -1725 0
-1723 -1726 0
-1723 -1727 0
-1723 -1728 0
-1724 -1725 0
-1724 -1726 0
-1724 -1727 0
-1724 -1728 0
-1725 -1726 0
-1725 -1727 0
-1725 -1728 0
-1726 -1727 0
-1726 -1728 0
-1727 -1728 0
1729 1730 1731 1732 1733 1734 1735 1736 1737 0
-1729 -1730 0
-1729 -1731 0
-1729 -1732 0
-1729 -1733 0
-1729 -1734 0
-1729 -1735 0
-1729 -1736 0
-1729 -1737 0
-1730 -1731 0
-1730 -1732 0
-1730 -1733 0
-1730 -1734 0
-1730 -1735 0
-1730 -1736 0
-1730 -1737 0
-1731 -1732 0
-1731 -1733 0
-1731 -1734 0
-1731 -1735 0
-1731 -1736 0
-1731 -1737 0
-1732 -1733 0
-1732 -1734 0
-1732 -1735 0
-1732 -1736 0
-1732 -1737 0
-1733 -1734 0
-1733 -1735 0
-1733 -1736 0
-1733 -1737 0
-1734 -1735 0
-1734 -1736 0
-1734 -1737 0
-1735 -1736 0
-1735 -1737 0
-1736 -1737 0
1738 1739 1740 1741 1742 1743 1744 1745 1746 0
-1738 -1739 0
-1738 -1740 0
-1738 -1741 0
-1738 -1742 0
-1738 -1743 0
-1738 -1744 0
-1738 -1745 0
-1738 -1746 0
-1739 -1740 0
-1739 -1741 0
-1739 -1742 0
-1739 -1743 0
-1739 -1744 0
-1739 -1745 0
-1739 -1746 0
-1740 -1741 0
-1740 -1742 0
-1740 -1743 0
-1740 -1744 0
-1740 -1745 0
-1740 -1746 0
-1741 -1742 0
-1741 -1743 0
-1741 -1744 0
-1741 -1745 0
-1741 -1746 0
-1742 -1743 0
-1742 -1744 0
-1742 -1745 0
-1742 -1746 0
-1743 -1744 0
-1743 -1745 0
-1743 -1746 0
-1744 -1745 0
-1744 -1746 0
-1745 -1746 0
1747 1748 1749 1750 1751 1752 1753 1754 1755 0
-1747 -1748 0
-1747 -1749 0
-1747 -1750 0
-1747 -1751 0
-1747 -1752 0
-1747 -1753 0
-1747 -1754 0
-1747 -1755 0
-1748 -1749 0
-1748 -1750 0
-1748 -1751 0
-1748 -1752 0
-1748 -1753 0
-1748 -1754 0
-1748 -1755 0
-1749 -1750 0
-1749 -1751 0
-1749 -1752 0
-1749 -1753 0
-1749 -1754 0
-1749 -1755 0
-1750 -1751 0
-1750 -1752 0
-1750 -1753 0
-1750 -1754 0
-1750 -1755 0
-1751 -1752 0
-1751 -1753 0
-1751 -1754 0
-1751 -1755 0
-1752 -1753 0
-1752 -1754 0
-1752 -1755 0
-1753 -1754 0
-1753 -1755 0
-1754 -1755 0
1756 1757 1758 1759 1760 1761 1762 1763 1764 0
-1756 -1757 0
-1756 -1758 0
-1756 -1759 0
-1756 -1760 0
-1756 -1761 0
-1756 -1762 0
-1756 -1763 0
-1756 -1764 0
-1757 -1758 0
-1757 -1759 0
-1757 -1760 0
-1757 -1761 0
-1757 -1762 0
-1757 -1763 0
-1757 -1764 0
-1758 -1759 0
-1758 -1760 0
-1758 -1761 0
-1758 -1762 0
-1758 -1763 0
-1758 -1764 0
-1759 -1760 0
-1759 -1761 0
-1759 -1762 0
-1759 -1763 0
-1759 -1764 0
-1760 -1761 0
-1760 -1762 0
-1760 -1763 0
-1760 -1764 0
-1761 -1762 0
-1761 -1763 0
-1761 -1764 0
-1762 -1763 0
-1762 -1764 0
-1763 -1764 0
1765 1766 1767 1768 1769 1770 1771 1772 1773 0
-1765 -1766 0
-1765 -1767 0
-1765 -1768 0
-1765 -1769 0
-1765 -1770 0
-1765 -1771 0
-1765 -1772 0
-1765 -1773 0
-1766 -1767 0
-1766 -1768 0
-1766 -1769 0
-1766 -1770 0
-1766 -1771 0
-1766 -1772 0
-1766 -1773 0
-1767 -1768 0
-1767 -1769 0
-1767 -1770 0
-1767 -1771 0
-1767 -1772 0
-1767 -1773 0
-1768 -1769 0
-1768 -1770 0
-1768 -1771 0
-1768 -1772 0
-1768 -1773 0
-1769 -1770 0
-1769 -1771 0
-1769 -1772 0
-1769 -1773 0
-1770 -1771 0
-1770 -1772 0
-1770 -1773 0
-1771 -1772 0
-1771 -1773 0
-1772 -1773 0
1774 1775 1776 1777 1778 1779 1780 1781 1782 0
-1774 -1775 0
-1774 -1776 0
-1774 -1777 0
-1774 -1778 0
-1774 -1779 0
-1774 -1780 0
-1774 -1781 0
-1774 -1782 0
-1775 -1776 0
-1775 -1777 0
-1775 -1778 0
-1775 -1779 0
-1775 -1780 0
-1775 -1781 0
-1775 -1782 0
-1776 -1777 0
-1776 -1778 0
-1776 -1779 0
-1776 -1780 0
-1776 -1781 0
-1776 -1782 0
-1777 -1778 0
-1777 -1779 0
-1777 -1780 0
-1777 -1781 0
-1777 -1782 0
-1778 -1779 0
-1778 -1780 0
-1778 -1781 0
-1778 -1782 0
-1779 -1780 0
-1779 -1781 0
-1779 -1782 0
-1780 -1781 0
-1780 -1782 0
-1781 -1782 0
1783 1784 1785 1786 1787 1788 1789 1790 1791 0
-1783 -1784 0
-1783 -1785 0
-1783 -1786 0
-1783 -1787 0
-1783 -1788 0
-1783 -1789 0
-1783 -1790 0
-1783 -1791 0
-1784 -1785 0
-1784 -1786 0
-1784 -1787 0
-1784 -1788 0
-1784 -1789 0
-1784 -1790 0
-1784 -1791 0
-1785 -1786 0
-1785 -1787 0
-1785 -1788 0
-1785 -1789 0
-1785 -1790 0
-1785 -1791 0
-1786 -1787 0
-1786 -1788 0
-1786 -1789 0
-1786 -1790 0
-1786 -1791 0
-1787 -1788 0
-1787 -1789 0
-1787 -1790 0
-1787 -1791 0
-1788 -1789 0
-1788 -1790 0
-1788 -1791 0
-1789 -1790 0
-1789 -1791 0
-1790 -1791 0
1792 1793 1794 1795 1796 1797 1798 1799 1800 0
-1792 -1793 0
-1792 -1794 0
-1792 -1795 0
-1792 -1796 0
-1792 -1797 0
-1792 -1798 0
-1792 -1799 0
-1792 -1800 0
-1793 -1794 0
-1793 -1795 0
-1793 -1796 0
-1793 -1797 0
-1793 -1798 0
-1793 -1799 0
-1793 -1800 0
-1794 -1795 0
-1794 -1796 0
-1794 -1797 0
-1794 -1798 0
-1794 -1799 0
-1794 -1800 0
-1795 -1796 0
-1795 -1797 0
-1795 -1798 0
-1795 -1799 0
-1795 -1800 0
-1796 -1797 0
-1796 -1798 0
-1796 -1799 0
-1796 -1800 0
-1797 -1798 0
-1797 -1799 0
-1797 -1800 0
-1798 -1799 0
-1798 -1800 0
-1799 -1800 0
1801 1802 1803 1804 1805 1806 1807 1808 1809 0
-1801 -1802 0
-1801 -1803 0
-1801 -1804 0
-1801 -1805 0
-1801 -1806 0
-1801 -1807 0
-1801 -1808 0
-1801 -1809 0
-1802 -1803 0
-1802 -1804 0
-1802 -1805 0
-1802 -1806 0
-1802 -1807 0
-1802 -1808 0
-1802 -1809 0
-1803 -1804 0
-1803 -1805 0
-1803 -1806 0
-1803 -1807 0
-1803 -1808 0
-1803 -1809 0
-1804 -1805 0
-1804 -1806 0
-1804 -1807 0
-1804 -1808 0
-1804 -1809 0
-1805 -1806 0
-1805 -1807 0
-1805 -1808 0
-1805 -1809 0
-1806 -1807 0
-1806 -1808 0
-1806 -1809 0
-1807 -1808 0
-1807 -1809 0
-1808 -1809 0
1810 1811 1812 1813 1814 1815 1816 1817 1818 0
-1810 -1811 0
-1810 -1812 0
-1810 -1813 0
-1810 -1814 0
-1810 -1815 0
-1810 -1816 0
-1810 -1817 0
-1810 -1818 0
-1811 -1812 0
-1811 -1813 0
-1811 -1814 0
-1811 -1815 0
-1811 -1816 0
-1811 -1817 0
-1811 -1818 0
-1812 -1813 0
-1812 -1814 0
-1812 -1815 0
-1812 -1816 0
-1812 -1817 0
-1812 -1818 0
-1813 -1814 0
-1813 -1815 0
-1813 -1816 0
-1813 -1817 0
-1813 -1818 0
-1814 -1815 0
-1814 -1816 0
-1814 -1817 0
-1814 -1818 0
-1815 -1816 0
-1815 -1817 0
-1815 -1818 0
-1816 -1817 0
-1816 -1818 0
-1817 -1818 0
1819 1820 1821 1822 1823 1824 1825 1826 1827 0
-1819 -1820 0
-1819 -1821 0
-1819 -1822 0
-1819 -1823 0
-1819 -1824 0
-1819 -1825 0
-1819 -1826 0
-1819 -1827 0
-1820 -1821 0
-1820 -1822 0
-1820 -1823 0
-1820 -1824 0
-1820 -1825 0
-1820 -1826 0
-1820 -1827 0
-1821 -1822 0
-1821 -1823 0
-1821 -1824 0
-1821 -1825 0
-1821 -1826 0
-1821 -1827 0
-1822 -1823 0
-1822 -1824 0
-1822 -1825 0
-1822 -1826 0
-1822 -1827 0
-1823 -1824 0
-1823 -1825 0
-1823 -1826 0
-1823 -1827 0
-1824 -1825 0
-1824 -1826 0
-1824 -1827 0
-1825 -1826 0
-1825 -1827 0
-1826 -1827 0
1828 1829 1830 1831 1832 1833 1834 1835 1836 0
-1828 -1829 0
-1828 -1830 0
-1828 -1831 0
-1828 -1832 0
-1828 -1833 0
-1828 -1834 0
-1828 -1835 0
-1828 -1836 0
-1829 -1830 0
-1829 -1831 0
-1829 -1832 0
-1829 -1833 0
-1829 -1834 0
-1829 -1835 0
-1829 -1836 0
-1830 -1831 0
-1830 -1832 0
-1830 -1833 0
-1830 -1834 0
-1830 -1835 0
-1830 -1836 0
-1831 -1832 0
-1831 -1833 0
-1831 -1834 0
-1831 -1835 0
-1831 -1836 0
-1832 -1833 0
-1832 -1834 0
-1832 -1835 0
-1832 -1836 0
-1833 -1834 0
-1833 -1835 0
-1833 -1836 0
-1834 -1835 0
-1834 -1836 0
-1835 -1836 0
1837 1838 1839 1840 1841 1842 1843 1844 1845 0
-1837 -1838 0
-1837 -1839 0
-1837 -1840 0
-1837 -1841 0
-1837 -1842 0
-1837 -1843 0
-1837 -1844 0
-1837 -1845 0
-1838 -1839 0
-1838 -1840 0
-1838 -1841 0
-1838 -1842 0
-1838 -1843 0
-1838 -1844 0
-1838 -1845 0
-1839 -1840 0
-1839 -1841 0
-1839 -1842 0
-1839 -1843 0
-1839 -1844 0
-1839 -1845 0
-1840 -1841 0
-1840 -1842 0
-1840 -1843 0
-1840 -1844 0
-1840 -1845 0
-1841 -1842 0
-1841 -1843 0
-1841 -1844 0
-1841 -1845 0
-1842 -1843 0
-1842 -1844 0
-1842 -1845 0
-1843 -1844 0
-1843 -1845 0
-1844 -1845 0
1846 1847 1848 1849 1850 1851 1852 1853 1854 0
-1846 -1847 0
-1846 -1848 0
-1846 -1849 0
-1846 -1850 0
-1846 -1851 0
-1846 -1852 0
-1846 -1853 0
-1846 -1854 0
-1847 -1848 0
-1847 -1849 0
-1847 -1850 0
-1847 -1851 0
-1847 -1852 0
-1847 -1853 0
-1847 -1854 0
-1848 -1849 0
-1848 -1850 0
-1848 -1851 0
-1848 -1852 0
-1848 -1853 0
-1848 -1854 0
-1849 -1850 0
-1849 -1851 0
-1849 -1852 0
-1849 -1853 0
-1849 -1854 0
-1850 -1851 0
-1850 -1852 0
-1850 -1853 0
-1850 -1854 0
-1851 -1852 0
-1851 -1853 0
-1851 -1854 0
-1852 -1853 0
-1852 -1854 0
-1853 -1854 0
1855 1856 1857 1858 1859 1860 1861 1862 1863 0
-1855 -1856 0
-1855 -1857 0
-1855 -1858 0
-1855 -1859 0
-1855 -1860 0
-1855 -1861 0
-1855 -1862 0
-1855 -1863 0
-1856 -1857 0
-1856 -1858 0
-1856 -1859 0
-1856 -1860 0
-1856 -1861 0
-1856 -1862 0
-1856 -1863 0
-1857 -1858 0
-1857 -1859 0
-1857 -1860 0
-1857 -1861 0
-1857 -1862 0
-1857 -1863 0
-1858 -1859 0
-1858 -1860 0
-1858 -1861 0
-1858 -1862 0
-1858 -1863 0
-1859 -1860 0
-1859 -1861 0
-1859 -1862 0
-1859 -1863 0
-1860 -1861 0
-1860 -1862 0
-1860 -1863 0
-1861 -1862 0
-1861 -1863 0
-1862 -1863 0
1864 1865 1866 1867 1868 1869 1870 1871 1872 0
-1864 -1865 0
-1864 -1866 0
-1864 -1867 0
-1864 -1868 0
-1864 -1869 0
-1864 -1870 0
-1864 -1871 0
-1864 -1872 0
-1865 -1866 0
-1865 -1867 0
-1865 -1868 0
-1865 -1869 0
-1865 -1870 0
-1865 -1871 0
-1865 -1872 0
-1866 -1867 0
-1866 -1868 0
-1866 -1869 0
-1866 -1870 0
-1866 -1871 0
-1866 -1872 0
-1867 -1868 0
-1867 -1869 0
-1867 -1870 0
-1867 -1871 0
-1867 -1872 0
-1868 -1869 0
-1868 -1870 0
-1868 -1871 0
-1868 -1872 0
-1869 -1870 0
-1869 -1871 0
-1869 -1872 0
-1870 -1871 0
-1870 -1872 0
-1871 -1872 0
1873 1874 1875 1876 1877 1878 1879 1880 1881 0
-1873 -1874 0
-1873 -1875 0
-1873 -1876 0
-1873 -1877 0
-1873 -1878 0
-1873 -1879 0
-1873 -1880 0
-1873 -1881 0
-1874 -1875 0
-1874 -1876 0
-1874 -1877 0
-1874 -1878 0
-1874 -1879 0
-1874 -1880 0
-1874 -1881 0
-1875 -1876 0
-1875 -1877 0
-1875 -1878 0
-1875 -1879 0
-1875 -1880 0
-1875 -1881 0
-1876 -1877 0
-1876 -1878 0
-1876 -1879 0
-1876 -1880 0
-1876 -1881 0
-1877 -1878 0
-1877 -1879 0
-1877 -1880 0
-1877 -1881 0
-1878 -1879 0
-1878 -1880 0
-1878 -1881 0
-1879 -1880 0
-1879 -1881 0
-1880 -1881 0
1882 1883 1884 1885 1886 1887 1888 1889 1890 0
-1882 -1883 0
-1882 -1884 0
-1882 -1885 0
-1882 -1886 0
-1882 -1887 0
-1882 -1888 0
-1882 -1889 0
-1882 -1890 0
-1883 -1884 0
-1883 -1885 0
-1883 -1886 0
-1883 -1887 0
-1883 -1888 0
-1883 -1889 0
-1883 -1890 0
-1884 -1885 0
-1884 -1886 0
-1884 -1887 0
-1884 -1888 0
-1884 -1889 0
-1884 -1890 0
-1885 -1886 0
-1885 -1887 0
-1885 -1888 0
-1885 -1889 0
-1885 -1890 0
-1886 -1887 0
-1886 -1888 0
-1886 -1889 0
-1886 -1890 0
-1887 -1888 0
-1887 -1889 0
-1887 -1890 0
-1888 -1889 0
-1888 -1890 0
-1889 -1890 0
1891 1892 1893 1894 1895 1896 1897 1898 1899 0
-1891 -1892 0
-1891 -1893 0
-1891 -1894 0
-1891 -1895 0
-1891 -1896 0
-1891 -1897 0
-1891 -1898 0
-1891 -1899 0
-1892 -1893 0
-1892 -1894 0
-1892 -1895 0
-1892 -1896 0
-1892 -1897 0
-1892 -1898 0
-1892 -1899 0
-1893 -1894 0
-1893 -1895 0
-1893 -1896 0
-1893 -1897 0
-1893 -1898 0
-1893 -1899 0
-1894 -1895 0
-1894 -1896 0
-1894 -1897 0
-1894 -1898 0
-1894 -1899 0
-1895 -1896 0
-1895 -1897 0
-1895 -1898 0
-1895 -1899 0
-1896 -1897 0
-1896 -1898 0
-1896 -1899 0
-1897 -1898 0
-1897 -1899 0
-1898 -1899 0
1900 1901 1902 1903 1904 1905 1906 1907 1908 0
-1900 -1901 0
-1900 -1902 0
-1900 -1903 0
-1900 -1904 0
-1900 -1905 0
-1900 -1906 0
-1900 -1907 0
-1900 -1908 0
-1901 -1902 0
-1901 -1903 0
-1901 -1904 0
-1901 -1905 0
-1901 -1906 0
-1901 -1907 0
-1901 -1908 0
-1902 -1903 0
-1902 -1904 0
-1902 -1905 0
-1902 -1906 0
-1902 -1907 0
-1902 -1908 0
-1903 -1904 0
-1903 -1905 0
-1903 -1906 0
-1903 -1907 0
-1903 -1908 0
-1904 -1905 0
-1904 -1906 0
-1904 -1907 0
-1904 -1908 0
-1905 -1906 0
-1905 -1907 0
-1905 -1908 0
-1906 -1907 0
-1906 -1908 0
-1907 -1908 0
1909 1910 1911 1912 1913 1914 1915 1916 1917 0
-1909 -1910 0
-1909 -1911 0
-1909 -1912 0
-1909 -1913 0
-1909 -1914 0
-1909 -1915 0
-1909 -1916 0
-1909 -1917 0
-1910 -1911 0
-1910 -1912 0
-1910 -1913 0
-1910 -1914 0
-1910 -1915 0
-1910 -1916 0
-1910 -1917 0
-1911 -1912 0
-1911 -1913 0
-1911 -1914 0
-1911 -1915 0
-1911 -1916 0
-1911 -1917 0
-1912 -1913 0
-1912 -1914 0
-1912 -1915 0
-1912 -1916 0
-1912 -1917 0
-1913 -1914 0
-1913 -1915 0
-1913 -1916 0
-1913 -1917 0
-1914 -1915 0
-1914 -1916 0
-1914 -1917 0
-1915 -1916 0
-1915 -1917 0
-1916 -1917 0
1918 1919 1920 1921 1922 1923 1924 1925 1926 0
-1918 -1919 0
-1918 -1920 0
-1918 -1921 0
-1918 -1922 0
-1918 -1923 0
-1918 -1924 0
-1918 -1925 0
-1918 -1926 0
-1919 -1920 0
-1919 -1921 0
-1919 -1922 0
-1919 -1923 0
-1919 -1924 0
-1919 -1925 0
-1919 -1926 0
-1920 -1921 0
-1920 -1922 0
-1920 -1923 0
-1920 -1924 0
-1920 -1925 0
-1920 -1926 0
-1921 -1922 0
-1921 -1923 0
-1921 -1924 0
-1921 -1925 0
-1921 -1926 0
-1922 -1923 0
-1922 -1924 0
-1922 -1925 0
-1922 -1926 0
-1923 -1924 0
-1923 -1925 0
-1923 -1926 0
-1924 -1925 0
-1924 -1926 0
-1925 -1926 0
1927 1928 1929 1930 1931 1932 1933 1934 1935 0
-1927 -1928 0
-1927 -1929 0
-1927 -1930 0
-1927 -1931 0
-1927 -1932 0
-1927 -1933 0
-1927 -1934 0
-1927 -1935 0
-1928 -1929 0
-1928 -1930 0
-1928 -1931 0
-1928 -1932 0
-1928 -1933 0
-1928 -1934 0
-1928 -1935 0
-1929 -1930 0
-1929 -1931 0
-1929 -1932 0
-1929 -1933 0
-1929 -1934 0
-1929 -1935 0
-1930 -1931 0
-1930 -1932 0
-1930 -1933 0
-1930 -1934 0
-1930 -1935 0
-1931 -1932 0
-1931 -1933 0
-1931 -1934 0
-1931 -1935 0
-1932 -1933 0
-1932 -1934 0
-1932 -1935 0
-1933 -1934 0
-1933 -1935 0
-1934 -1935 0
1936 1937 1938 1939 1940 1941 1942 1943 1944 0
-1936 -1937 0
-1936 -1938 0
-1936 -1939 0
-1936 -1940 0
-1936 -1941 0
-1936 -1942 0
-1936 -1943 0
-1936 -1944 0
-1937 -1938 0
-1937 -1939 0
-1937 -1940 0
-1937 -1941 0
-1937 -1942 0
-1937 -1943 0
-1937 -1944 0
-1938 -1939 0
-1938 -1940 0
-1938 -1941 0
-1938 -1942 0
-1938 -1943 0
-1938 -1944 0
-1939 -1940 0
-1939 -1941 0
-1939 -1942 0
-1939 -1943 0
-1939 -1944 0
-1940 -1941 0
-1940 -1942 0
-1940 -1943 0
-1940 -1944 0
-1941 -1942 0
-1941 -1943 0
-1941 -1944 0
-1942 -1943 0
-1942 -1944 0
-1943 -1944 0
1945 1946 1947 1948 1949 1950 1951 1952 1953 0
-1945 -1946 0
-1945 -1947 0
-1945 -1948 0
-1945 -1949 0
-1945 -1950 0
-1945 -1951 0
-1945 -1952 0
-1945 -1953 0
-1946 -1947 0
-1946 -1948 0
-1946 -1949 0
-1946 -1950 0
-1946 -1951 0
-1946 -1952 0
-1946 -1953 0
-1947 -1948 0
-1947 -1949 0
-1947 -1950 0
-1947 -1951 0
-1947 -1952 0
-1947 -1953 0
-1948 -1949 0
-1948 -1950 0
-1948 -1951 0
-1948 -1952 0
-1948 -1953 0
-1949 -1950 0
-1949 -1951 0
-1949 -1952 0
-1949 -1953 0
-1950 -1951 0
-1950 -1952 0
-1950 -1953 0
-1951 -1952 0
-1951 -1953 0
-1952 -1953 0
1954 1955 1956 1957 1958 1959 1960 1961 1962 0
-1954 -1955 0
-1954 -1956 0
-1954 -1957 0
-1954 -1958 0
-1954 -1959 0
-1954 -1960 0
-1954 -1961 0
-1954 -1962 0
-1955 -1956 0
-1955 -1957 0
-1955 -1958 0
-1955 -1959 0
-1955 -1960 0
-1955 -1961 0
-1955 -1962 0
-1956 -1957 0
-1956 -1958 0
-1956 -1959 0
-1956 -1960 0
-1956 -1961 0
-1956 -1962 0
-1957 -1958 0
-1957 -1959 0
-1957 -1960 0
-1957 -1961 0
-1957 -1962 0
-1958 -1959 0
-1958 -1960 0
-1958 -1961 0
-1958 -1962 0
-1959 -1960 0
-1959 -1961 0
-1959 -1962 0
-1960 -1961 0
-1960 -1962 0
-1961 -1962 0
1963 1964 1965 1966 1967 1968 1969 1970 1971 0
-1963 -1964 0
-1963 -1965 0
-1963 -1966 0
-1963 -1967 0
-1963 -1968 0
-1963 -1969 0
-1963 -1970 0
-1963 -1971 0
-1964 -1965 0
-1964 -1966 0
-1964 -1967 0
-1964 -1968 0
-1964 -1969 0
-1964 -1970 0
-1964 -1971 0
-1965 -1966 0
-1965 -1967 0
-1965 -1968 0
-1965 -1969 0
-1965 -1970 0
-1965 -1971 0
-1966 -1967 0
-1966 -1968 0
-1966 -1969 0
-1966 -1970 0
-1966 -1971 0
-1967 -1968 0
-1967 -1969 0
-1967 -1970 0
-1967 -1971 0
-1968 -1969 0
-1968 -1970 0
-1968 -1971 0
-1969 -1970 0
-1969 -1971 0
-1970 -1971 0
1972 1973 1974 1975 1976 1977 1978 1979 1980 0
-1972 -1973 0
-1972 -1974 0
-1972 -1975 0
-1972 -1976 0
-1972 -1977 0
-1972 -1978 0
-1972 -1979 0
-1972 -1980 0
-1973 -1974 0
-1973 -1975 0
-1973 -1976 0
-1973 -1977 0
-1973 -1978 0
-1973 -1979 0
-1973 -1980 0
-1974 -1975 0
-1974 -1976 0
-1974 -1977 0
-1974 -1978 0
-1974 -1979 0
-1974 -1980 0
-1975 -1976 0
-1975 -1977 0
-1975 -1978 0
-1975 -1979 0
-1975 -1980 0
-1976 -1977 0
-1976 -1978 0
-1976 -1979 0
-1976 -1980 0
-1977 -1978 0
-1977 -1979 0
-1977 -1980 0
-1978 -1979 0
-1978 -1980 0
-1979 -1980 0
1981 1982 1983 1984 1985 1986 1987 1988 1989 0
-1981 -1982 0
-1981 -1983 0
-1981 -1984 0
-1981 -1985 0
-1981 -1986 0
-1981 -1987 0
-1981 -1988 0
-1981 -1989 0
-1982 -1983 0
-1982 -1984 0
-1982 -1985 0
-1982 -1986 0
-1982 -1987 0
-1982 -1988 0
-1982 -1989 0
-1983 -1984 0
-1983 -1985 0
-1983 -1986 0
-1983 -1987 0
-1983 -1988 0
-1983 -1989 0
-1984 -1985 0
-1984 -1986 0
-1984 -1987 0
-1984 -1988 0
-1984 -1989 0
-1985 -1986 0
-1985 -1987 0
-1985 -1988 0
-1985 -1989 0
-1986 -1987 0
-1986 -1988 0
-1986 -1989 0
-1987 -1988 0
-1987 -1989 0
-1988 -1989 0
1990 1991 1992 1993 1994 1995 1996 1997 1998 0
-1990 -1991 0
-1990 -1992 0
-1990 -1993 0
-1990 -1994 0
-1990 -1995 0
-1990 -1996 0
-1990 -1997 0
-1990 -1998 0
-1991 -1992 0
-1991 -1993 0
-1991 -1994 0
-1991 -1995 0
-1991 -1996 0
-1991 -1997 0
-1991 -1998 0
-1992 -1993 0
-1992 -1994 0
-1992 -1995 0
-1992 -1996 0
-1992 -1997 0
-1992 -1998 0
-1993 -1994 0
-1993 -1995 0
-1993 -1996 0
-1993 -1997 0
-1993 -1998 0
-1994 -1995 0
-1994 -1996 0
-1994 -1997 0
-1994 -1998 0
-1995 -1996 0
-1995 -1997 0
-1995 -1998 0
-1996 -1997 0
-1996 -1998 0
-1997 -1998 0
1999 2000 2001 2002 2003 2004 2005 2006 2007 0
-1999 -2000 0
-1999 -2001 0
-1999 -2002 0
-1999 -2003 0
-1999 -2004 0
-1999 -2005 0
-1999 -2006 0
-1999 -2007 0
-2000 -2001 0
-2000 -2002 0
-2000 -2003 0
-2000 -2004 0
-2000 -2005 0
-2000 -2006 0
-2000 -2007 0
-2001 -2002 0
-2001 -2003 0
-2001 -2004 0
-2001 -2005 0
-2001 -2006 0
-2001 -2007 0
-2002 -2003 0
-2002 -2004 0
-2002 -2005 0
-2002 -2006 0
-2002 -2007 0
-2003 -2004 0
-2003 -2005 0
-2003 -2006 0
-2003 -2007 0
-2004 -2005 0
-2004 -2006 0
-2004 -2007 0
-2005 -2006 0
-2005 -2007 0
-2006 -2007 0
2008 2009 2010 2011 2012 2013 2014 2015 2016 0
-2008 -2009 0
-2008 -2010 0
-2008 -2011 0
-2008 -2012 0
-2008 -2013 0
-2008 -2014 0
-2008 -2015 0
-2008 -2016 0
-2009 -2010 0
-2009 -2011 0
-2009 -2012 0
-2009 -2013 0
-2009 -2014 0
-2009 -2015 0
-2009 -2016 0
-2010 -2011 0
-2010 -2012 0
-2010 -2013 0
-2010 -2014 0
-2010 -2015 0
-2010 -2016 0
-2011 -2012 0
-2011 -2013 0
-2011 -2014 0
-2011 -2015 0
-2011 -2016 0
-2012 -2013 0
-2012 -2014 0
-2012 -2015 0
-2012 -2016 0
-2013 -2014 0
-2013 -2015 0
-2013 -2016 0
-2014 -2015 0
-2014 -2016 0
-2015 -2016 0
2017 2018 2019 2020 2021 2022 2023 2024 2025 0
-2017 -2018 0
-2017 -2019 0
-2017 -2020 0
-2017 -2021 0
-2017 -2022 0
-2017 -2023 0
-2017 -2024 0
-2017 -2025 0
-2018 -2019 0
-2018 -2020 0
-2018 -2021 0
-2018 -2022 0
-2018 -2023 0
-2018 -2024 0
-2018 -2025 0
-2019 -2020 0
-2019 -2021 0
-2019 -2022 0
-2019 -2023 0
-2019 -2024 0
-2019 -2025 0
-2020 -2021 0
-2020 -2022 0
-2020 -2023 0
-2020 -2024 0
-2020 -2025 0
-2021 -2022 0
-2021 -2023 0
-2021 -2024 0
-2021 -2025 0
-2022 -2023 0
-2022 -2024 0
-2022 -2025 0
-2023 -2024 0
-2023 -2025 0
-2024 -2025 0
2026 2027 2028 2029 2030 2031 2032 2033 2034 0
-2026 -2027 0
-2026 -2028 0
-2026 -2029 0
-2026 -2030 0
-2026 -2031 0
-2026 -2032 0
-2026 -2033 0
-2026 -2034 0
-2027 -2028 0
-2027 -2029 0
-2027 -2030 0
-2027 -2031 0
-2027 -2032 0
-2027 -2033 0
-2027 -2034 0
-2028 -2029 0
-2028 -2030 0
-2028 -2031 0
-2028 -2032 0
-2028 -2033 0
-2028 -2034 0
-2029 -2030 0
-2029 -2031 0
-2029 -2032 0
-2029 -2033 0
-2029 -2034 0
-2030 -2031 0
-2030 -2032 0
-2030 -2033 0
-2030 -2034 0
-2031 -2032 0
-2031 -2033 0
-2031 -2034 0
-2032 -2033 0
-2032 -2034 0
-2033 -2034 0
2035 2036 2037 2038 2039 2040 2041 2042 2043 0
-2035 -2036 0
-2035 -2037 0
-2035 -2038 0
-2035 -2039 0
-2035 -2040 0
-2035 -2041 0
-2035 -2042 0
-2035 -2043 0
-2036 -2037 0
-2036 -2038 0
-2036 -2039 0
-2036 -2040 0
-2036 -2041 0
-2036 -2042 0
-2036 -2043 0
-2037 -2038 0
-2037 -2039 0
-2037 -2040 0
-2037 -2041 0
-2037 -2042 0
-2037 -2043 0
-2038 -2039 0
-2038 -2040 0
-2038 -2041 0
-2038 -2042 0
-2038 -2043 0
-2039 -2040 0
-2039 -2041 0
-2039 -2042 0
-2039 -2043 0
-2040 -2041 0
-2040 -2042 0
-2040 -2043 0
-2041 -2042 0
-2041 -2043 0
-2042 -2043 0
2044 2045 2046 2047 2048 2049 2050 2051 2052 0
-2044 -2045 0
-2044 -2046 0
-2044 -2047 0
-2044 -2048 0
-2044 -2049 0
-2044 -2050 0
-2044 -2051 0
-2044 -2052 0
-2045 -2046 0
-2045 -2047 0
-2045 -2048 0
-2045 -2049 0
-2045 -2050 0
-2045 -2051 0
-2045 -2052 0
-2046 -2047 0
-2046 -2048 0
-2046 -2049 0
-2046 -2050 0
-2046 -2051 0
-2046 -2052 0
-2047 -2048 0
-2047 -2049 0
-2047 -2050 0
-2047 -2051 0
-2047 -2052 0
-2048 -2049 0
-2048 -2050 0
-2048 -2051 0
-2048 -2052 0
-2049 -2050 0
-2049 -2051 0
-2049 -2052 0
-2050 -2051 0
-2050 -2052 0
-2051 -2052 0
2053 2054 2055 2056 2057 2058 2059 2060 2061 0
-2053 -2054 0
-2053 -2055 0
-2053 -2056 0
-2053 -2057 0
-2053 -2058 0
-2053 -2059 0
-2053 -2060 0
-2053 -2061 0
-2054 -2055 0
-2054 -2056 0
-2054 -2057 0
-2054 -2058 0
-2054 -2059 0
-2054 -2060 0
-2054 -2061 0
-2055 -2056 0
-2055 -2057 0
-2055 -2058 0
-2055 -2059 0
-2055 -2060 0
-2055 -2061 0
-2056 -2057 0
-2056 -2058 0
-2056 -2059 0
-2056 -2060 0
-2056 -2061 0
-2057 -2058 0
-2057 -2059 0
-2057 -2060 0
-2057 -2061 0
-2058 -2059 0
-2058 -2060 0
-2058 -2061 0
-2059 -2060 0
-2059 -2061 0
-2060 -2061 0
2062 2063 2064 2065 2066 2067 2068 2069 2070 0
-2062 -2063 0
-2062 -2064 0
-2062 -2065 0
-2062 -2066 0
-2062 -2067 0
-2062 -2068 0
-2062 -2069 0
-2062 -2070 0
-2063 -2064 0
-2063 -2065 0
-2063 -2066 0
-2063 -2067 0
-2063 -2068 0
-2063 -2069 0
-2063 -2070 0
-2064 -2065 0
-2064 -2066 0
-2064 -2067 0
-2064 -2068 0
-2064 -2069 0
-2064 -2070 0
-2065 -2066 0
-2065 -2067 0
-2065 -2068 0
-2065 -2069 0
-2065 -2070 0
-2066 -2067 0
-2066 -2068 0
-2066 -2069 0
-2066 -2070 0
-2067 -2068 0
-2067 -2069 0
-2067 -2070 0
-2068 -2069 0
-2068 -2070 0
-2069 -2070 0
2071 2072 2073 2074 2075 2076 2077 2078 2079 0
-2071 -2072 0
-2071 -2073 0
-2071 -2074 0
-2071 -2075 0
-2071 -2076 0
-2071 -2077 0
-2071 -2078 0
-2071 -2079 0
-2072 -2073 0
-2072 -2074 0
-2072 -2075 0
-2072 -2076 0
-2072 -2077 0
-2072 -2078 0
-2072 -2079 0
-2073 -2074 0
-2073 -2075 0
-2073 -2076 0
-2073 -2077 0
-2073 -2078 0
-2073 -2079 0
-2074 -2075 0
-2074 -2076 0
-2074 -2077 0
-2074 -2078 0
-2074 -2079 0
-2075 -2076 0
-2075 -2077 0
-2075 -2078 0
-2075 -2079 0
-2076 -2077 0
-2076 -2078 0
-2076 -2079 0
-2077 -2078 0
-2077 -2079 0
-2078 -2079 0
2080 2081 2082 2083 2084 2085 2086 2087 2088 0
-2080 -2081 0
-2080 -2082 0
-2080 -2083 0
-2080 -2084 0
-2080 -2085 0
-2080 -2086 0
-2080 -2087 0
-2080 -2088 0
-2081 -2082 0
-2081 -2083 0
-2081 -2084 0
-2081 -2085 0
-2081 -2086 0
-2081 -2087 0
-2081 -2088 0
-2082 -2083 0
-2082 -2084 0
-2082 -2085 0
-2082 -2086 0
-2082 -2087 0
-2082 -2088 0
-2083 -2084 0
-2083 -2085 0
-2083 -2086 0
-2083 -2087 0
-2083 -2088 0
-2084 -2085 0
-2084 -2086 0
-2084 -2087 0
-2084 -2088 0
-2085 -2086 0
-2085 -2087 0
-2085 -2088 0
-2086 -2087 0
-2086 -2088 0
-2087 -2088 0
2089 2090 2091 2092 2093 2094 2095 2096 2097 0
-2089 -2090 0
-2089 -2091 0
-2089 -2092 0
-2089 -2093 0
-2089 -2094 0
-2089 -2095 0
-2089 -2096 0
-2089 -2097 0
-2090 -2091 0
-2090 -2092 0
-2090 -2093 0
-2090 -2094 0
-2090 -2095 0
-2090 -2096 0
-2090 -2097 0
-2091 -2092 0
-2091 -2093 0
-2091 -2094 0
-2091 -2095 0
-2091 -2096 0
-2091 -2097 0
-2092 -2093 0
-2092 -2094 0
-2092 -2095 0
-2092 -2096 0
-2092 -2097 0
-2093 -2094 0
-2093 -2095 0
-2093 -2096 0
-2093 -2097 0
-2094 -2095 0
-2094 -2096 0
-2094 -2097 0
-2095 -2096 0
-2095 -2097 0
-2096 -2097 0
2098 2099 2100 2101 2102 2103 2104 2105 2106 0
-2098 -2099 0
-2098 -2100 0
-2098 -2101 0
-2098 -2102 0
-2098 -2103 0
-2098 -2104 0
-2098 -2105 0
-2098 -2106 0
-2099 -2100 0
-2099 -2101 0
-2099 -2102 0
-2099 -2103 0
-2099 -2104 0
-2099 -2105 0
-2099 -2106 0
-2100 -2101 0
-2100 -2102 0
-2100 -2103 0
-2100 -2104 0
-2100 -2105 0
-2100 -2106 0
-2101 -2102 0
-2101 -2103 0
-2101 -2104 0
-2101 -2105 0
-2101 -2106 0
-2102 -2103 0
-2102 -2104 0
-2102 -2105 0
-2102 -2106 0
-2103 -2104 0
-2103 -2105 0
-2103 -2106 0
-2104 -2105 0
-2104 -2106 0
-2105 -2106 0
2107 2108 2109 2110 2111 2112 2113 2114 2115 0
-2107 -2108 0
-2107 -2109 0
-2107 -2110 0
-2107 -2111 0
-2107 -2112 0
-2107 -2113 0
-2107 -2114 0
-2107 -2115 0
-2108 -2109 0
-2108 -2110 0
-2108 -2111 0
-2108 -2112 0
-2108 -2113 0
-2108 -2114 0
-2108 -2115 0
-2109 -2110 0
-2109 -2111 0
-2109 -2112 0
-2109 -2113 0
-2109 -2114 0
-2109 -2115 0
-2110 -2111 0
-2110 -2112 0
-2110 -2113 0
-2110 -2114 0
-2110 -2115 0
-2111 -2112 0
-2111 -2113 0
-2111 -2114 0
-2111 -2115 0
-2112 -2113 0
-2112 -2114 0
-2112 -2115 0
-2113 -2114 0
-2113 -2115 0
-2114 -2115 0
2116 2117 2118 2119 2120 2121 2122 2123 2124 0
-2116 -2117 0
-2116 -2118 0
-2116 -2119 0
-2116 -2120 0
-2116 -2121 0
-2116 -2122 0
-2116 -2123 0
-2116 -2124 0
-2117 -2118 0
-2117 -2119 0
-2117 -2120 0
-2117 -2121 0
-2117 -2122 0
-2117 -2123 0
-2117 -2124 0
-2118 -2119 0
-2118 -2120 0
-2118 -2121 0
-2118 -2122 0
-2118 -2123 0
-2118 -2124 0
-2119 -2120 0
-2119 -2121 0
-2119 -2122 0
-2119 -2123 0
-2119 -2124 0
-2120 -2121 0
-2120 -2122 0
-2120 -2123 0
-2120 -2124 0
-2121 -2122 0
-2121 -2123 0
-2121 -2124 0
-2122 -2123 0
-2122 -2124 0
-2123 -2124 0
2125 2126 2127 2128 2129 2130 2131 2132 2133 0
-2125 -2126 0
-2125 -2127 0
-2125 -2128 0
-2125 -2129 0
-2125 -2130 0
-2125 -2131 0
-2125 -2132 0
-2125 -2133 0
-2126 -2127 0
-2126 -2128 0
-2126 -2129 0
-2126 -2130 0
-2126 -2131 0
-2126 -2132 0
-2126 -2133 0
-2127 -2128 0
-2127 -2129 0
-2127 -2130 0
-2127 -2131 0
-2127 -2132 0
-2127 -2133 0
-2128 -2129 0
-2128 -2130 0
-2128 -2131 0
-2128 -2132 0
-2128 -2133 0
-2129 -2130 0
-2129 -2131 0
-2129 -2132 0
-2129 -2133 0
-2130 -2131 0
-2130 -2132 0
-2130 -2133 0
-2131 -2132 0
-2131 -2133 0
-2132 -2133 0
2134 2135 2136 2137 2138 2139 2140 2141 2142 0
-2134 -2135 0
-2134 -2136 0
-2134 -2137 0
-2134 -2138 0
-2134 -2139 0
-2134 -2140 0
-2134 -2141 0
-2134 -2142 0
-2135 -2136 0
-2135 -2137 0
-2135 -2138 0
-2135 -2139 0
-2135 -2140 0
-2135 -2141 0
-2135 -2142 0
-2136 -2137 0
-2136 -2138 0
-2136 -2139 0
-2136 -2140 0
-2136 -2141 0
-2136 -2142 0
-2137 -2138 0
-2137 -2139 0
-2137 -2140 0
-2137 -2141 0
-2137 -2142 0
-2138 -2139 0
-2138 -2140 0
-2138 -2141 0
-2138 -2142 0
-2139 -2140 0
-2139 -2141 0
-2139 -2142 0
-2140 -2141 0
-2140 -2142 0
-2141 -2142 0
2143 2144 2145 2146 2147 2148 2149 2150 2151 0
-2143 -2144 0
-2143 -2145 0
-2143 -2146 0
-2143 -2147 0
-2143 -2148 0
-2143 -2149 0
-2143 -2150 0
-2143 -2151 0
-2144 -2145 0
-2144 -2146 0
-2144 -2147 0
-2144 -2148 0
-2144 -2149 0
-2144 -2150 0
-2144 -2151 0
-2145 -2146 0
-2145 -2147 0
-2145 -2148 0
-2145 -2149 0
-2145 -2150 0
-2145 -2151 0
-2146 -2147 0
-2146 -2148 0
-2146 -2149 0
-2146 -2150 0
-2146 -2151 0
-2147 -2148 0
-2147 -2149 0
-2147 -2150 0
-2147 -2151 0
-2148 -2149 0
-2148 -2150 0
-2148 -2151 0
-2149 -2150 0
-2149 -2151 0
-2150 -2151 0
2152 2153 2154 2155 2156 2157 2158 2159 2160 0
-2152 -2153 0
-2152 -2154 0
-2152 -2155 0
-2152 -2156 0
-2152 -2157 0
-2152 -2158 0
-2152 -2159 0
-2152 -2160 0
-2153 -2154 0
-2153 -2155 0
-2153 -2156 0
-2153 -2157 0
-2153 -2158 0
-2153 -2159 0
-2153 -2160 0
-2154 -2155 0
-2154 -2156 0
-2154 -2157 0
-2154 -2158 0
-2154 -2159 0
-2154 -2160 0
-2155 -2156 0
-2155 -2157 0
-2155 -2158 0
-2155 -2159 0
-2155 -2160 0
-2156 -2157 0
-2156 -2158 0
-2156 -2159 0
-2156 -2160 0
-2157 -2158 0
-2157 -2159 0
-2157 -2160 0
-2158 -2159 0
-2158 -2160 0
-2159 -2160 0
2161 2162 2163 2164 2165 2166 2167 2168 2169 0
-2161 -2162 0
-2161 -2163 0
-2161 -2164 0
-2161 -2165 0
-2161 -2166 0
-2161 -2167 0
-2161 -2168 0
-2161 -2169 0
-2162 -2163 0
-2162 -2164 0
-2162 -2165 0
-2162 -2166 0
-2162 -2167 0
-2162 -2168 0
-2162 -2169 0
-2163 -2164 0
-2163 -2165 0
-2163 -2166 0
-2163 -2167 0
-2163 -2168 0
-2163 -2169 0
-2164 -2165 0
-2164 -2166 0
-2164 -2167 0
-2164 -2168 0
-2164 -2169 0
-2165 -2166 0
-2165 -2167 0
-2165 -2168 0
-2165 -2169 0
-2166 -2167 0
-2166 -2168 0
-2166 -2169 0
-2167 -2168 0
-2167 -2169 0
-2168 -2169 0
2170 2171 2172 2173 2174 2175 2176 2177 2178 0
-2170 -2171 0
-2170 -2172 0
-2170 -2173 0
-2170 -2174 0
-2170 -2175 0
-2170 -2176 0
-2170 -2177 0
-2170 -2178 0
-2171 -2172 0
-2171 -2173 0
-2171 -2174 0
-2171 -2175 0
-2171 -2176 0
-2171 -2177 0
-2171 -2178 0
-2172 -2173 0
-2172 -2174 0
-2172 -2175 0
-2172 -2176 0
-2172 -2177 0
-2172 -2178 0
-2173 -2174 0
-2173 -2175 0
-2173 -2176 0
-2173 -2177 0
-2173 -2178 0
-2174 -2175 0
-2174 -2176 0
-2174 -2177 0
-2174 -2178 0
-2175 -2176 0
-2175 -2177 0
-2175 -2178 0
-2176 -2177 0
-2176 -2178 0
-2177 -2178 0
2179 2180 2181 2182 2183 2184 2185 2186 2187 0
-2179 -2180 0
-2179 -2181 0
-2179 -2182 0
-2179 -2183 0
-2179 -2184 0
-2179 -2185 0
-2179 -2186 0
-2179 -2187 0
-2180 -2181 0
-2180 -2182 0
-2180 -2183 0
-2180 -2184 0
-2180 -2185 0
-2180 -2186 0
-2180 -2187 0
-2181 -2182 0
-2181 -2183 0
-2181 -2184 0
-2181 -2185 0
-2181 -2186 0
-2181 -2187 0
-2182 -2183 0
-2182 -2184 0
-2182 -2185 0
-2182 -2186 0
-2182 -2187 0
-2183 -2184 0
-2183 -2185 0
-2183 -2186 0
-2183 -2187 0
-2184 -2185 0
-2184 -2186 0
-2184 -2187 0
-2185 -2186 0
-2185 -2187 0
-2186 -2187 0
2188 2189 2190 2191 2192 2193 2194 2195 2196 0
-2188 -2189 0
-2188 -2190 0
-2188 -2191 0
-2188 -2192 0
-2188 -2193 0
-2188 -2194 0
-2188 -2195 0
-2188 -2196 0
-2189 -2190 0
-2189 -2191 0
-2189 -2192 0
-2189 -2193 0
-2189 -2194 0
-2189 -2195 0
-2189 -2196 0
-2190 -2191 0
-2190 -2192 0
-2190 -2193 0
-2190 -2194 0
-2190 -2195 0
-2190 -2196 0
-2191 -2192 0
-2191 -2193 0
-2191 -2194 0
-2191 -2195 0
-2191 -2196 0
-2192 -2193 0
-2192 -2194 0
-2192 -2195 0
-2192 -2196 0
-2193 -2194 0
-2193 -2195 0
-2193 -2196 0
-2194 -2195 0
-2194 -2196 0
-2195 -2196 0
2197 2198 2199 2200 2201 2202 2203 2204 2205 0
-2197 -2198 0
-2197 -2199 0
-2197 -2200 0
-2197 -2201 0
-2197 -2202 0
-2197 -2203 0
-2197 -2204 0
-2197 -2205 0
-2198 -2199 0
-2198 -2200 0
-2198 -2201 0
-2198 -2202 0
-2198 -2203 0
-2198 -2204 0
-2198 -2205 0
-2199 -2200 0
-2199 -2201 0
-2199 -2202 0
-2199 -2203 0
-2199 -2204 0
-2199 -2205 0
-2200 -2201 0
-2200 -2202 0
-2200 -2203 0
-2200 -2204 0
-2200 -2205 0
-2201 -2202 0
-2201 -2203 0
-2201 -2204 0
-2201 -2205 0
-2202 -2203 0
-2202 -2204 0
-2202 -2205 0
-2203 -2204 0
-2203 -2205 0
-2204 -2205 0
2206 2207 2208 2209 2210 2211 2212 2213 2214 0
-2206 -2207 0
-2206 -2208 0
-2206 -2209 0
-2206 -2210 0
-2206 -2211 0
-2206 -2212 0
-2206 -2213 0
-2206 -2214 0
-2207 -2208 0
-2207 -2209 0
-2207 -2210 0
-2207 -2211 0
-2207 -2212 0
-2207 -2213 0
-2207 -2214 0
-2208 -2209 0
-2208 -2210 0
-2208 -2211 0
-2208 -2212 0
-2208 -2213 0
-2208 -2214 0
-2209 -2210 0
-2209 -2211 0
-2209 -2212 0
-2209 -2213 0
-2209 -2214 0
-2210 -2211 0
-2210 -2212 0
-2210 -2213 0
-2210 -2214 0
-2211 -2212 0
-2211 -2213 0
-2211 -2214 0
-2212 -2213 0
-2212 -2214 0
-2213 -2214 0
2215 2216 2217 2218 2219 2220 2221 2222 2223 0
-2215 -2216 0
-2215 -2217 0
-2215 -2218 0
-2215 -2219 0
-2215 -2220 0
-2215 -2221 0
-2215 -2222 0
-2215 -2223 0
-2216 -2217 0
-2216 -2218 0
-2216 -2219 0
-2216 -2220 0
-2216 -2221 0
-2216 -2222 0
-2216 -2223 0
-2217 -2218 0
-2217 -2219 0
-2217 -2220 0
-2217 -2221 0
-2217 -2222 0
-2217 -2223 0
-2218 -2219 0
-2218 -2220 0
-2218 -2221 0
-2218 -2222 0
-2218 -2223 0
-2219 -2220 0
-2219 -2221 0
-2219 -2222 0
-2219 -2223 0
-2220 -2221 0
-2220 -2222 0
-2220 -2223 0
-2221 -2222 0
-2221 -2223 0
-2222 -2223 0
2224 2225 2226 2227 2228 2229 2230 2231 2232 0
-2224 -2225 0
-2224 -2226 0
-2224 -2227 0
-2224 -2228 0
-2224 -2229 0
-2224 -2230 0
-2224 -2231 0
-2224 -2232 0
-2225 -2226 0
-2225 -2227 0
-2225 -2228 0
-2225 -2229 0
-2225 -2230 0
-2225 -2231 0
-2225 -2232 0
-2226 -2227 0
-2226 -2228 0
-2226 -2229 0
-2226 -2230 0
-2226 -2231 0
-2226 -2232 0
-2227 -2228 0
-2227 -2229 0
-2227 -2230 0
-2227 -2231 0
-2227 -2232 0
-2228 -2229 0
-2228 -2230 0
-2228 -2231 0
-2228 -2232 0
-2229 -2230 0
-2229 -2231 0
-2229 -2232 0
-2230 -2231 0
-2230 -2232 0
-2231 -2232 0
2233 2234 2235 2236 2237 2238 2239 2240 2241 0
-2233 -2234 0
-2233 -2235 0
-2233 -2236 0
-2233 -2237 0
-2233 -2238 0
-2233 -2239 0
-2233 -2240 0
-2233 -2241 0
-2234 -2235 0
-2234 -2236 0
-2234 -2237 0
-2234 -2238 0
-2234 -2239 0
-2234 -2240 0
-2234 -2241 0
-2235 -2236 0
-2235 -2237 0
-2235 -2238 0
-2235 -2239 0
-2235 -2240 0
-2235 -2241 0
-2236 -2237 0
-2236 -2238 0
-2236 -2239 0
-2236 -2240 0
-2236 -2241 0
-2237 -2238 0
-2237 -2239 0
-2237 -2240 0
-2237 -2241 0
-2238 -2239 0
-2238 -2240 0
-2238 -2241 0
-2239 -2240 0
-2239 -2241 0
-2240 -2241 0
2242 2243 2244 2245 2246 2247 2248 2249 2250 0
-2242 -2243 0
-2242 -2244 0
-2242 -2245 0
-2242 -2246 0
-2242 -2247 0
-2242 -2248 0
-2242 -2249 0
-2242 -2250 0
-2243 -2244 0
-2243 -2245 0
-2243 -2246 0
-2243 -2247 0
-2243 -2248 0
-2243 -2249 0
-2243 -2250 0
-2244 -2245 0
-2244 -2246 0
-2244 -2247 0
-2244 -2248 0
-2244 -2249 0
-2244 -2250 0
-2245 -2246 0
-2245 -2247 0
-2245 -2248 0
-2245 -2249 0
-2245 -2250 0
-2246 -2247 0
-2246 -2248 0
-2246 -2249 0
-2246 -2250 0
-2247 -2248 0
-2247 -2249 0
-2247 -2250 0
-2248 -2249 0
-2248 -2250 0
-2249 -2250 0
2251 2252 2253 2254 2255 2256 2257 2258 2259 0
-2251 -2252 0
-2251 -2253 0
-2251 -2254 0
-2251 -2255 0
-2251 -2256 0
-2251 -2257 0
-2251 -2258 0
-2251 -2259 0
-2252 -2253 0
-2252 -2254 0
-2252 -2255 0
-2252 -2256 0
-2252 -2257 0
-2252 -2258 0
-2252 -2259 0
-2253 -2254 0
-2253 -2255 0
-2253 -2256 0
-2253 -2257 0
-2253 -2258 0
-2253 -2259 0
-2254 -2255 0
-2254 -2256 0
-2254 -2257 0
-2254 -2258 0
-2254 -2259 0
-2255 -2256 0
-2255 -2257 0
-2255 -2258 0
-2255 -2259 0
-2256 -2257 0
-2256 -2258 0
-2256 -2259 0
-2257 -2258 0
-2257 -2259 0
-2258 -2259 0
2260 2261 2262 2263 2264 2265 2266 2267 2268 0
-2260 -2261 0
-2260 -2262 0
-2260 -2263 0
-2260 -2264 0
-2260 -2265 0
-2260 -2266 0
-2260 -2267 0
-2260 -2268 0
-2261 -2262 0
-2261 -2263 0
-2261 -2264 0
-2261 -2265 0
-2261 -2266 0
-2261 -2267 0
-2261 -2268 0
-2262 -2263 0
-2262 -2264 0
-2262 -2265 0
-2262 -2266 0
-2262 -2267 0
-2262 -2268 0
-2263 -2264 0
-2263 -2265 0
-2263 -2266 0
-2263 -2267 0
-2263 -2268 0
-2264 -2265 0
-2264 -2266 0
-2264 -2267 0
-2264 -2268 0
-2265 -2266 0
-2265 -2267 0
-2265 -2268 0
-2266 -2267 0
-2266 -2268 0
-2267 -2268 0
2269 2270 2271 2272 2273 2274 2275 2276 2277 0
-2269 -2270 0
-2269 -2271 0
-2269 -2272 0
-2269 -2273 0
-2269 -2274 0
-2269 -2275 0
-2269 -2276 0
-2269 -2277 0
-2270 -2271 0
-2270 -2272 0
-2270 -2273 0
-2270 -2274 0
-2270 -2275 0
-2270 -2276 0
-2270 -2277 0
-2271 -2272 0
-2271 -2273 0
-2271 -2274 0
-2271 -2275 0
-2271 -2276 0
-2271 -2277 0
-2272 -2273 0
-2272 -2274 0
-2272 -2275 0
-2272 -2276 0
-2272 -2277 0
-2273 -2274 0
-2273 -2275 0
-2273 -2276 0
-2273 -2277 0
-2274 -2275 0
-2274 -2276 0
-2274 -2277 0
-2275 -2276 0
-2275 -2277 0
-2276 -2277 0
2278 2279 2280 2281 2282 2283 2284 2285 2286 0
-2278 -2279 0
-2278 -2280 0
-2278 -2281 0
-2278 -2282 0
-2278 -2283 0
-2278 -2284 0
-2278 -2285 0
-2278 -2286 0
-2279 -2280 0
-2279 -2281 0
-2279 -2282 0
-2279 -2283 0
-2279 -2284 0
-2279 -2285 0
-2279 -2286 0
-2280 -2281 0
-2280 -2282 0
-2280 -2283 0
-2280 -2284 0
-2280 -2285 0
-2280 -2286 0
-2281 -2282 0
-2281 -2283 0
-2281 -2284 0
-2281 -2285 0
-2281 -2286 0
-2282 -2283 0
-2282 -2284 0
-2282 -2285 0
-2282 -2286 0
-2283 -2284 0
-2283 -2285 0
-2283 -2286 0
-2284 -2285 0
-2284 -2286 0
-2285 -2286 0
2287 2288 2289 2290 2291 2292 2293 2294 2295 0
-2287 -2288 0
-2287 -2289 0
-2287 -2290 0
-2287 -2291 0
-2287 -2292 0
-2287 -2293 0
-2287 -2294 0
-2287 -2295 0
-2288 -2289 0
-2288 -2290 0
-2288 -2291 0
-2288 -2292 0
-2288 -2293 0
-2288 -2294 0
-2288 -2295 0
-2289 -2290 0
-2289 -2291 0
-2289 -2292 0
-2289 -2293 0
-2289 -2294 0
-2289 -2295 0
-2290 -2291 0
-2290 -2292 0
-2290 -2293 0
-2290 -2294 0
-2290 -2295 0
-2291 -2292 0
-2291 -2293 0
-2291 -2294 0
-2291 -2295 0
-2292 -2293 0
-2292 -2294 0
-2292 -2295 0
-2293 -2294 0
-2293 -2295 0
-2294 -2295 0
2296 2297 2298 2299 2300 2301 2302 2303 2304 0
-2296 -2297 0
-2296 -2298 0
-2296 -2299 0
-2296 -2300 0
-2296 -2301 0
-2296 -2302 0
-2296 -2303 0
-2296 -2304 0
-2297 -2298 0
-2297 -2299 0
-2297 -2300 0
-2297 -2301 0
-2297 -2302 0
-2297 -2303 0
-2297 -2304 0
-2298 -2299 0
-2298 -2300 0
-2298 -2301 0
-2298 -2302 0
-2298 -2303 0
-2298 -2304 0
-2299 -2300 0
-2299 -2301 0
-2299 -2302 0
-2299 -2303 0
-2299 -2304 0
-2300 -2301 0
-2300 -2302 0
-2300 -2303 0
-2300 -2304 0
-2301 -2302 0
-2301 -2303 0
-2301 -2304 0
-2302 -2303 0
-2302 -2304 0
-2303 -2304 0
2305 2306 2307 2308 2309 2310 2311 2312 2313 0
-2305 -2306 0
-2305 -2307 0
-2305 -2308 0
-2305 -2309 0
-2305 -2310 0
-2305 -2311 0
-2305 -2312 0
-2305 -2313 0
-2306 -2307 0
-2306 -2308 0
-2306 -2309 0
-2306 -2310 0
-2306 -2311 0
-2306 -2312 0
-2306 -2313 0
-2307 -2308 0
-2307 -2309 0
-2307 -2310 0
-2307 -2311 0
-2307 -2312 0
-2307 -2313 0
-2308 -2309 0
-2308 -2310 0
-2308 -2311 0
-2308 -2312 0
-2308 -2313 0
-2309 -2310 0
-2309 -2311 0
-2309 -2312 0
-2309 -2313 0
-2310 -2311 0
-2310 -2312 0
-2310 -2313 0
-2311 -2312 0
-2311 -2313 0
-2312 -2313 0
2314 2315 2316 2317 2318 2319 2320 2321 2322 0
-2314 -2315 0
-2314 -2316 0
-2314 -2317 0
-2314 -2318 0
-2314 -2319 0
-2314 -2320 0
-2314 -2321 0
-2314 -2322 0
-2315 -2316 0
-2315 -2317 0
-2315 -2318 0
-2315 -2319 0
-2315 -2320 0
-2315 -2321 0
-2315 -2322 0
-2316 -2317 0
-2316 -2318 0
-2316 -2319 0
-2316 -2320 0
-2316 -2321 0
-2316 -2322 0
-2317 -2318 0
-2317 -2319 0
-2317 -2320 0
-2317 -2321 0
-2317 -2322 0
-2318 -2319 0
-2318 -2320 0
-2318 -2321 0
-2318 -2322 0
-2319 -2320 0
-2319 -2321 0
-2319 -2322 0
-2320 -2321 0
-2320 -2322 0
-2321 -2322 0
2323 2324 2325 2326 2327 2328 2329 2330 2331 0
-2323 -2324 0
-2323 -2325 0
-2323 -2326 0
-2323 -2327 0
-2323 -2328 0
-2323 -2329 0
-2323 -2330 0
-2323 -2331 0
-2324 -2325 0
-2324 -2326 0
-2324 -2327 0
-2324 -2328 0
-2324 -2329 0
-2324 -2330 0
-2324 -2331 0
-2325 -2326 0
-2325 -2327 0
-2325 -2328 0
-2325 -2329 0
-2325 -2330 0
-2325 -2331 0
-2326 -2327 0
-2326 -2328 0
-2326 -2329 0
-2326 -2330 0
-2326 -2331 0
-2327 -2328 0
-2327 -2329 0
-2327 -2330 0
-2327 -2331 0
-2328 -2329 0
-2328 -2330 0
-2328 -2331 0
-2329 -2330 0
-2329 -2331 0
-2330 -2331 0
2332 2333 2334 2335 2336 2337 2338 2339 2340 0
-2332 -2333 0
-2332 -2334 0
-2332 -2335 0
-2332 -2336 0
-2332 -2337 0
-2332 -2338 0
-2332 -2339 0
-2332 -2340 0
-2333 -2334 0
-2333 -2335 0
-2333 -2336 0
-2333 -2337 0
-2333 -2338 0
-2333 -2339 0
-2333 -2340 0
-2334 -2335 0
-2334 -2336 0
-2334 -2337 0
-2334 -2338 0
-2334 -2339 0
-2334 -2340 0
-2335 -2336 0
-2335 -2337 0
-2335 -2338 0
-2335 -2339 0
-2335 -2340 0
-2336 -2337 0
-2336 -2338 0
-2336 -2339 0
-2336 -2340 0
-2337 -2338 0
-2337 -2339 0
-2337 -2340 0
-2338 -2339 0
-2338 -2340 0
-2339 -2340 0
2341 2342 2343 2344 2345 2346 2347 2348 2349 0
-2341 -2342 0
-2341 -2343 0
-2341 -2344 0
-2341 -2345 0
-2341 -2346 0
-2341 -2347 0
-2341 -2348 0
-2341 -2349 0
-2342 -2343 0
-2342 -2344 0
-2342 -2345 0
-2342 -2346 0
-2342 -2347 0
-2342 -2348 0
-2342 -2349 0
-2343 -2344 0
-2343 -2345 0
-2343 -2346 0
-2343 -2347 0
-2343 -2348 0
-2343 -2349 0
-2344 -2345 0
-2344 -2346 0
-2344 -2347 0
-2344 -2348 0
-2344 -2349 0
-2345 -2346 0
-2345 -2347 0
-2345 -2348 0
-2345 -2349 0
-2346 -2347 0
-2346 -2348 0
-2346 -2349 0
-2347 -2348 0
-2347 -2349 0
-2348 -2349 0
2350 2351 2352 2353 2354 2355 2356 2357 2358 0
-2350 -2351 0
-2350 -2352 0
-2350 -2353 0
-2350 -2354 0
-2350 -2355 0
-2350 -2356 0
-2350 -2357 0
-2350 -2358 0
-2351 -2352 0
-2351 -2353 0
-2351 -2354 0
-2351 -2355 0
-2351 -2356 0
-2351 -2357 0
-2351 -2358 0
-2352 -2353 0
-2352 -2354 0
-2352 -2355 0
-2352 -2356 0
-2352 -2357 0
-2352 -2358 0
-2353 -2354 0
-2353 -2355 0
-2353 -2356 0
-2353 -2357 0
-2353 -2358 0
-2354 -2355 0
-2354 -2356 0
-2354 -2357 0
-2354 -2358 0
-2355 -2356 0
-2355 -2357 0
-2355 -2358 0
-2356 -2357 0
-2356 -2358 0
-2357 -2358 0
2359 2360 2361 2362 2363 2364 2365 2366 2367 0
-2359 -2360 0
-2359 -2361 0
-2359 -2362 0
-2359 -2363 0
-2359 -2364 0
-2359 -2365 0
-2359 -2366 0
-2359 -2367 0
-2360 -2361 0
-2360 -2362 0
-2360 -2363 0
-2360 -2364 0
-2360 -2365 0
-2360 -2366 0
-2360 -2367 0
-2361 -2362 0
-2361 -2363 0
-2361 -2364 0
-2361 -2365 0
-2361 -2366 0
-2361 -2367 0
-2362 -2363 0
-2362 -2364 0
-2362 -2365 0
-2362 -2366 0
-2362 -2367 0
-2363 -2364 0
-2363 -2365 0
-2363 -2366 0
-2363 -2367 0
-2364 -2365 0
-2364 -2366 0
-2364 -2367 0
-2365 -2366 0
-2365 -2367 0
-2366 -2367 0
2368 2369 2370 2371 2372 2373 2374 2375 2376 0
-2368 -2369 0
-2368 -2370 0
-2368 -2371 0
-2368 -2372 0
-2368 -2373 0
-2368 -2374 0
-2368 -2375 0
-2368 -2376 0
-2369 -2370 0
-2369 -2371 0
-2369 -2372 0
-2369 -2373 0
-2369 -2374 0
-2369 -2375 0
-2369 -2376 0
-2370 -2371 0
-2370 -2372 0
-2370 -2373 0
-2370 -2374 0
-2370 -2375 0
-2370 -2376 0
-2371 -2372 0
-2371 -2373 0
-2371 -2374 0
-2371 -2375 0
-2371 -2376 0
-2372 -2373 0
-2372 -2374 0
-2372 -2375 0
-2372 -2376 0
-2373 -2374 0
-2373 -2375 0
-2373 -2376 0
-2374 -2375 0
-2374 -2376 0
-2375 -2376 0
2377 2378 2379 2380 2381 2382 2383 2384 2385 0
-2377 -2378 0
-2377 -2379 0
-2377 -2380 0
-2377 -2381 0
-2377 -2382 0
-2377 -2383 0
-2377 -2384 0
-2377 -2385 0
-2378 -2379 0
-2378 -2380 0
-2378 -2381 0
-2378 -2382 0
-2378 -2383 0
-2378 -2384 0
-2378 -2385 0
-2379 -2380 0
-2379 -2381 0
-2379 -2382 0
-2379 -2383 0
-2379 -2384 0
-2379 -2385 0
-2380 -2381 0
-2380 -2382 0
-2380 -2383 0
-2380 -2384 0
-2380 -2385 0
-2381 -2382 0
-2381 -2383 0
-2381 -2384 0
-2381 -2385 0
-2382 -2383 0
-2382 -2384 0
-2382 -2385 0
-2383 -2384 0
-2383 -2385 0
-2384 -2385 0
2386 2387 2388 2389 2390 2391 2392 2393 2394 0
-2386 -2387 0
-2386 -2388 0
-2386 -2389 0
-2386 -2390 0
-2386 -2391 0
-2386 -2392 0
-2386 -2393 0
-2386 -2394 0
-2387 -2388 0
-2387 -2389 0
-2387 -2390 0
-2387 -2391 0
-2387 -2392 0
-2387 -2393 0
-2387 -2394 0
-2388 -2389 0
-2388 -2390 0
-2388 -2391 0
-2388 -2392 0
-2388 -2393 0
-2388 -2394 0
-2389 -2390 0
-2389 -2391 0
-2389 -2392 0
-2389 -2393 0
-2389 -2394 0
-2390 -2391 0
-2390 -2392 0
-2390 -2393 0
-2390 -2394 0
-2391 -2392 0
-2391 -2393 0
-2391 -2394 0
-2392 -2393 0
-2392 -2394 0
-2393 -2394 0
2395 2396 2397 2398 2399 2400 2401 2402 2403 0
-2395 -2396 0
-2395 -2397 0
-2395 -2398 0
-2395 -2399 0
-2395 -2400 0
-2395 -2401 0
-2395 -2402 0
-2395 -2403 0
-2396 -2397 0
-2396 -2398 0
-2396 -2399 0
-2396 -2400 0
-2396 -2401 0
-2396 -2402 0
-2396 -2403 0
-2397 -2398 0
-2397 -2399 0
-2397 -2400 0
-2397 -2401 0
-2397 -2402 0
-2397 -2403 0
-2398 -2399 0
-2398 -2400 0
-2398 -2401 0
-2398 -2402 0
-2398 -2403 0
-2399 -2400 0
-2399 -2401 0
-2399 -2402 0
-2399 -2403 0
-2400 -2401 0
-2400 -2402 0
-2400 -2403 0
-2401 -2402 0
-2401 -2403 0
-2402 -2403 0
2404 2405 2406 2407 2408 2409 2410 2411 2412 0
-2404 -2405 0
-2404 -2406 0
-2404 -2407 0
-2404 -2408 0
-2404 -2409 0
-2404 -2410 0
-2404 -2411 0
-2404 -2412 0
-2405 -2406 0
-2405 -2407 0
-2405 -2408 0
-2405 -2409 0
-2405 -2410 0
-2405 -2411 0
-2405 -2412 0
-2406 -2407 0
-2406 -2408 0
-2406 -2409 0
-2406 -2410 0
-2406 -2411 0
-2406 -2412 0
-2407 -2408 0
-2407 -2409 0
-2407 -2410 0
-2407 -2411 0
-2407 -2412 0
-2408 -2409 0
-2408 -2410 0
-2408 -2411 0
-2408 -2412 0
-2409 -2410 0
-2409 -2411 0
-2409 -2412 0
-2410 -2411 0
-2410 -2412 0
-2411 -2412 0
2413 2414 2415 2416 2417 2418 2419 2420 2421 0
-2413 -2414 0
-2413 -2415 0
-2413 -2416 0
-2413 -2417 0
-2413 -2418 0
-2413 -2419 0
-2413 -2420 0
-2413 -2421 0
-2414 -2415 0
-2414 -2416 0
-2414 -2417 0
-2414 -2418 0
-2414 -2419 0
-2414 -2420 0
-2414 -2421 0
-2415 -2416 0
-2415 -2417 0
-2415 -2418 0
-2415 -2419 0
-2415 -2420 0
-2415 -2421 0
-2416 -2417 0
-2416 -2418 0
-2416 -2419 0
-2416 -2420 0
-2416 -2421 0
-2417 -2418 0
-2417 -2419 0
-2417 -2420 0
-2417 -2421 0
-2418 -2419 0
-2418 -2420 0
-2418 -2421 0
-2419 -2420 0
-2419 -2421 0
-2420 -2421 0
2422 2423 2424 2425 2426 2427 2428 2429 2430 0
-2422 -2423 0
-2422 -2424 0
-2422 -2425 0
-2422 -2426 0
-2422 -2427 0
-2422 -2428 0
-2422 -2429 0
-2422 -2430 0
-2423 -2424 0
-2423 -2425 0
-2423 -2426 0
-2423 -2427 0
-2423 -2428 0
-2423 -2429 0
-2423 -2430 0
-2424 -2425 0
-2424 -2426 0
-2424 -2427 0
-2424 -2428 0
-2424 -2429 0
-2424 -2430 0
-2425 -2426 0
-2425 -2427 0
-2425 -2428 0
-2425 -2429 0
-2425 -2430 0
-2426 -2427 0
-2426 -2428 0
-2426 -2429 0
-2426 -2430 0
-2427 -2428 0
-2427 -2429 0
-2427 -2430 0
-2428 -2429 0
-2428 -2430 0
-2429 -2430 0
2431 2432 2433 2434 2435 2436 2437 2438 2439 0
-2431 -2432 0
-2431 -2433 0
-2431 -2434 0
-2431 -2435 0
-2431 -2436 0
-2431 -2437 0
-2431 -2438 0
-2431 -2439 0
-2432 -2433 0
-2432 -2434 0
-2432 -2435 0
-2432 -2436 0
-2432 -2437 0
-2432 -2438 0
-2432 -2439 0
-2433 -2434 0
-2433 -2435 0
-2433 -2436 0
-2433 -2437 0
-2433 -2438 0
-2433 -2439 0
-2434 -2435 0
-2434 -2436 0
-2434 -2437 0
-2434 -2438 0
-2434 -2439 0
-2435 -2436 0
-2435 -2437 0
-2435 -2438 0
-2435 -2439 0
-2436 -2437 0
-2436 -2438 0
-2436 -2439 0
-2437 -2438 0
-2437 -2439 0
-2438 -2439 0
2440 2441 2442 2443 2444 2445 2446 2447 2448 0
-2440 -2441 0
-2440 -2442 0
-2440 -2443 0
-2440 -2444 0
-2440 -2445 0
-2440 -2446 0
-2440 -2447 0
-2440 -2448 0
-2441 -2442 0
-2441 -2443 0
-2441 -2444 0
-2441 -2445 0
-2441 -2446 0
-2441 -2447 0
-2441 -2448 0
-2442 -2443 0
-2442 -2444 0
-2442 -2445 0
-2442 -2446 0
-2442 -2447 0
-2442 -2448 0
-2443 -2444 0
-2443 -2445 0
-2443 -2446 0
-2443 -2447 0
-2443 -2448 0
-2444 -2445 0
-2444 -2446 0
-2444 -2447 0
-2444 -2448 0
-2445 -2446 0
-2445 -2447 0
-2445 -2448 0
-2446 -2447 0
-2446 -2448 0
-2447 -2448 0
2449 2450 2451 2452 2453 2454 2455 2456 2457 0
-2449 -2450 0
-2449 -2451 0
-2449 -2452 0
-2449 -2453 0
-2449 -2454 0
-2449 -2455 0
-2449 -2456 0
-2449 -2457 0
-2450 -2451 0
-2450 -2452 0
-2450 -2453 0
-2450 -2454 0
-2450 -2455 0
-2450 -2456 0
-2450 -2457 0
-2451 -2452 0
-2451 -2453 0
-2451 -2454 0
-2451 -2455 0
-2451 -2456 0
-2451 -2457 0
-2452 -2453 0
-2452 -2454 0
-2452 -2455 0
-2452 -2456 0
-2452 -2457 0
-2453 -2454 0
-2453 -2455 0
-2453 -2456 0
-2453 -2457 0
-2454 -2455 0
-2454 -2456 0
-2454 -2457 0
-2455 -2456 0
-2455 -2457 0
-2456 -2457 0
2458 2459 2460 2461 2462 2463 2464 2465 2466 0
-2458 -2459 0
-2458 -2460 0
-2458 -2461 0
-2458 -2462 0
-2458 -2463 0
-2458 -2464 0
-2458 -2465 0
-2458 -2466 0
-2459 -2460 0
-2459 -2461 0
-2459 -2462 0
-2459 -2463 0
-2459 -2464 0
-2459 -2465 0
-2459 -2466 0
-2460 -2461 0
-2460 -2462 0
-2460 -2463 0
-2460 -2464 0
-2460 -2465 0
-2460 -2466 0
-2461 -2462 0
-2461 -2463 0
-2461 -2464 0
-2461 -2465 0
-2461 -2466 0
-2462 -2463 0
-2462 -2464 0
-2462 -2465 0
-2462 -2466 0
-2463 -2464 0
-2463 -2465 0
-2463 -2466 0
-2464 -2465 0
-2464 -2466 0
-2465 -2466 0
2467 2468 2469 2470 2471 2472 2473 2474 2475 0
-2467 -2468 0
-2467 -2469 0
-2467 -2470 0
-2467 -2471 0
-2467 -2472 0
-2467 -2473 0
-2467 -2474 0
-2467 -2475 0
-2468 -2469 0
-2468 -2470 0
-2468 -2471 0
-2468 -2472 0
-2468 -2473 0
-2468 -2474 0
-2468 -2475 0
-2469 -2470 0
-2469 -2471 0
-2469 -2472 0
-2469 -2473 0
-2469 -2474 0
-2469 -2475 0
-2470 -2471 0
-2470 -2472 0
-2470 -2473 0
-2470 -2474 0
-2470 -2475 0
-2471 -2472 0
-2471 -2473 0
-2471 -2474 0
-2471 -2475 0
-2472 -2473 0
-2472 -2474 0
-2472 -2475 0
-2473 -2474 0
-2473 -2475 0
-2474 -2475 0
2476 2477 2478 2479 2480 2481 2482 2483 2484 0
-2476 -2477 0
-2476 -2478 0
-2476 -2479 0
-2476 -2480 0
-2476 -2481 0
-2476 -2482 0
-2476 -2483 0
-2476 -2484 0
-2477 -2478 0
-2477 -2479 0
-2477 -2480 0
-2477 -2481 0
-2477 -2482 0
-2477 -2483 0
-2477 -2484 0
-2478 -2479 0
-2478 -2480 0
-2478 -2481 0
-2478 -2482 0
-2478 -2483 0
-2478 -2484 0
-2479 -2480 0
-2479 -2481 0
-2479 -2482 0
-2479 -2483 0
-2479 -2484 0
-2480 -2481 0
-2480 -2482 0
-2480 -2483 0
-2480 -2484 0
-2481 -2482 0
-2481 -2483 0
-2481 -2484 0
-2482 -2483 0
-2482 -2484 0
-2483 -2484 0
2485 2486 2487 2488 2489 2490 2491 2492 2493 0
-2485 -2486 0
-2485 -2487 0
-2485 -2488 0
-2485 -2489 0
-2485 -2490 0
-2485 -2491 0
-2485 -2492 0
-2485 -2493 0
-2486 -2487 0
-2486 -2488 0
-2486 -2489 0
-2486 -2490 0
-2486 -2491 0
-2486 -2492 0
-2486 -2493 0
-2487 -2488 0
-2487 -2489 0
-2487 -2490 0
-2487 -2491 0
-2487 -2492 0
-2487 -2493 0
-2488 -2489 0
-2488 -2490 0
-2488 -2491 0
-2488 -2492 0
-2488 -2493 0
-2489 -2490 0
-2489 -2491 0
-2489 -2492 0
-2489 -2493 0
-2490 -2491 0
-2490 -2492 0
-2490 -2493 0
-2491 -2492 0
-2491 -2493 0
-2492 -2493 0
2494 2495 2496 2497 2498 2499 2500 2501 2502 0
-2494 -2495 0
-2494 -2496 0
-2494 -2497 0
-2494 -2498 0
-2494 -2499 0
-2494 -2500 0
-2494 -2501 0
-2494 -2502 0
-2495 -2496 0
-2495 -2497 0
-2495 -2498 0
-2495 -2499 0
-2495 -2500 0
-2495 -2501 0
-2495 -2502 0
-2496 -2497 0
-2496 -2498 0
-2496 -2499 0
-2496 -2500 0
-2496 -2501 0
-2496 -2502 0
-2497 -2498 0
-2497 -2499 0
-2497 -2500 0
-2497 -2501 0
-2497 -2502 0
-2498 -2499 0
-2498 -2500 0
-2498 -2501 0
-2498 -2502 0
-2499 -2500 0
-2499 -2501 0
-2499 -2502 0
-2500 -2501 0
-2500 -2502 0
-2501 -2502 0
2503 2504 2505 2506 2507 2508 2509 2510 2511 0
-2503 -2504 0
-2503 -2505 0
-2503 -2506 0
-2503 -2507 0
-2503 -2508 0
-2503 -2509 0
-2503 -2510 0
-2503 -2511 0
-2504 -2505 0
-2504 -2506 0
-2504 -2507 0
-2504 -2508 0
-2504 -2509 0
-2504 -2510 0
-2504 -2511 0
-2505 -2506 0
-2505 -2507 0
-2505 -2508 0
-2505 -2509 0
-2505 -2510 0
-2505 -2511 0
-2506 -2507 0
-2506 -2508 0
-2506 -2509 0
-2506 -2510 0
-2506 -2511 0
-2507 -2508 0
-2507 -2509 0
-2507 -2510 0
-2507 -2511 0
-2508 -2509 0
-2508 -2510 0
-2508 -2511 0
-2509 -2510 0
-2509 -2511 0
-2510 -2511 0
2512 2513 2514 2515 2516 2517 2518 2519 2520 0
-2512 -2513 0
-2512 -2514 0
-2512 -2515 0
-2512 -2516 0
-2512 -2517 0
-2512 -2518 0
-2512 -2519 0
-2512 -2520 0
-2513 -2514 0
-2513 -2515 0
-2513 -2516 0
-2513 -2517 0
-2513 -2518 0
-2513 -2519 0
-2513 -2520 0
-2514 -2515 0
-2514 -2516 0
-2514 -2517 0
-2514 -2518 0
-2514 -2519 0
-2514 -2520 0
-2515 -2516 0
-2515 -2517 0
-2515 -2518 0
-2515 -2519 0
-2515 -2520 0
-2516 -2517 0
-2516 -2518 0
-2516 -2519 0
-2516 -2520 0
-2517 -2518 0
-2517 -2519 0
-2517 -2520 0
-2518 -2519 0
-2518 -2520 0
-2519 -2520 0
2521 2522 2523 2524 2525 2526 2527 2528 2529 0
-2521 -2522 0
-2521 -2523 0
-2521 -2524 0
-2521 -2525 0
-2521 -2526 0
-2521 -2527 0
-2521 -2528 0
-2521 -2529 0
-2522 -2523 0
-2522 -2524 0
-2522 -2525 0
-2522 -2526 0
-2522 -2527 0
-2522 -2528 0
-2522 -2529 0
-2523 -2524 0
-2523 -2525 0
-2523 -2526 0
-2523 -2527 0
-2523 -2528 0
-2523 -2529 0
-2524 -2525 0
-2524 -2526 0
-2524 -2527 0
-2524 -2528 0
-2524 -2529 0
-2525 -2526 0
-2525 -2527 0
-2525 -2528 0
-2525 -2529 0
-2526 -2527 0
-2526 -2528 0
-2526 -2529 0
-2527 -2528 0
-2527 -2529 0
-2528 -2529 0
2530 2531 2532 2533 2534 2535 2536 2537 2538 0
-2530 -2531 0
-2530 -2532 0
-2530 -2533 0
-2530 -2534 0
-2530 -2535 0
-2530 -2536 0
-2530 -2537 0
-2530 -2538 0
-2531 -2532 0
-2531 -2533 0
-2531 -2534 0
-2531 -2535 0
-2531 -2536 0
-2531 -2537 0
-2531 -2538 0
-2532 -2533 0
-2532 -2534 0
-2532 -2535 0
-2532 -2536 0
-2532 -2537 0
-2532 -2538 0
-2533 -2534 0
-2533 -2535 0
-2533 -2536 0
-2533 -2537 0
-2533 -2538 0
-2534 -2535 0
-2534 -2536 0
-2534 -2537 0
-2534 -2538 0
-2535 -2536 0
-2535 -2537 0
-2535 -2538 0
-2536 -2537 0
-2536 -2538 0
-2537 -2538 0
2539 2540 2541 2542 2543 2544 2545 2546 2547 0
-2539 -2540 0
-2539 -2541 0
-2539 -2542 0
-2539 -2543 0
-2539 -2544 0
-2539 -2545 0
-2539 -2546 0
-2539 -2547 0
-2540 -2541 0
-2540 -2542 0
-2540 -2543 0
-2540 -2544 0
-2540 -2545 0
-2540 -2546 0
-2540 -2547 0
-2541 -2542 0
-2541 -2543 0
-2541 -2544 0
-2541 -2545 0
-2541 -2546 0
-2541 -2547 0
-2542 -2543 0
-2542 -2544 0
-2542 -2545 0
-2542 -2546 0
-2542 -2547 0
-2543 -2544 0
-2543 -2545 0
-2543 -2546 0
-2543 -2547 0
-2544 -2545 0
-2544 -2546 0
-2544 -2547 0
-2545 -2546 0
-2545 -2547 0
-2546 -2547 0
2548 2549 2550 2551 2552 2553 2554 2555 2556 0
-2548 -2549 0
-2548 -2550 0
-2548 -2551 0
-2548 -2552 0
-2548 -2553 0
-2548 -2554 0
-2548 -2555 0
-2548 -2556 0
-2549 -2550 0
-2549 -2551 0
-2549 -2552 0
-2549 -2553 0
-2549 -2554 0
-2549 -2555 0
-2549 -2556 0
-2550 -2551 0
-2550 -2552 0
-2550 -2553 0
-2550 -2554 0
-2550 -2555 0
-2550 -2556 0
-2551 -2552 0
-2551 -2553 0
-2551 -2554 0
-2551 -2555 0
-2551 -2556 0
-2552 -2553 0
-2552 -2554 0
-2552 -2555 0
-2552 -2556 0
-2553 -2554 0
-2553 -2555 0
-2553 -2556 0
-2554 -2555 0
-2554 -2556 0
-2555 -2556 0
2557 2558 2559 2560 2561 2562 2563 2564 2565 0
-2557 -2558 0
-2557 -2559 0
-2557 -2560 0
-2557 -2561 0
-2557 -2562 0
-2557 -2563 0
-2557 -2564 0
-2557 -2565 0
-2558 -2559 0
-2558 -2560 0
-2558 -2561 0
-2558 -2562 0
-2558 -2563 0
-2558 -2564 0
-2558 -2565 0
-2559 -2560 0
-2559 -2561 0
-2559 -2562 0
-2559 -2563 0
-2559 -2564 0
-2559 -2565 0
-2560 -2561 0
-2560 -2562 0
-2560 -2563 0
-2560 -2564 0
-2560 -2565 0
-2561 -2562 0
-2561 -2563 0
-2561 -2564 0
-2561 -2565 0
-2562 -2563 0
-2562 -2564 0
-2562 -2565 0
-2563 -2564 0
-2563 -2565 0
-2564 -2565 0
2566 2567 2568 2569 2570 2571 2572 2573 2574 0
-2566 -2567 0
-2566 -2568 0
-2566 -2569 0
-2566 -2570 0
-2566 -2571 0
-2566 -2572 0
-2566 -2573 0
-2566 -2574 0
-2567 -2568 0
-2567 -2569 0
-2567 -2570 0
-2567 -2571 0
-2567 -2572 0
-2567 -2573 0
-2567 -2574 0
-2568 -2569 0
-2568 -2570 0
-2568 -2571 0
-2568 -2572 0
-2568 -2573 0
-2568 -2574 0
-2569 -2570 0
-2569 -2571 0
-2569 -2572 0
-2569 -2573 0
-2569 -2574 0
-2570 -2571 0
-2570 -2572 0
-2570 -2573 0
-2570 -2574 0
-2571 -2572 0
-2571 -2573 0
-2571 -2574 0
-2572 -2573 0
-2572 -2574 0
-2573 -2574 0
2575 2576 2577 2578 2579 2580 2581 2582 2583 0
-2575 -2576 0
-2575 -2577 0
-2575 -2578 0
-2575 -2579 0
-2575 -2580 0
-2575 -2581 0
-2575 -2582 0
-2575 -2583 0
-2576 -2577 0
-2576 -2578 0
-2576 -2579 0
-2576 -2580 0
-2576 -2581 0
-2576 -2582 0
-2576 -2583 0
-2577 -2578 0
-2577 -2579 0
-2577 -2580 0
-2577 -2581 0
-2577 -2582 0
-2577 -2583 0
-2578 -2579 0
-2578 -2580 0
-2578 -2581 0
-2578 -2582 0
-2578 -2583 0
-2579 -2580 0
-2579 -2581 0
-2579 -2582 0
-2579 -2583 0
-2580 -2581 0
-2580 -2582 0
-2580 -2583 0
-2581 -2582 0
-2581 -2583 0
-2582 -2583 0
2584 2585 2586 2587 2588 2589 2590 2591 2592 0
-2584 -2585 0
-2584 -2586 0
-2584 -2587 0
-2584 -2588 0
-2584 -2589 0
-2584 -2590 0
-2584 -2591 0
-2584 -2592 0
-2585 -2586 0
-2585 -2587 0
-2585 -2588 0
-2585 -2589 0
-2585 -2590 0
-2585 -2591 0
-2585 -2592 0
-2586 -2587 0
-2586 -2588 0
-2586 -2589 0
-2586 -2590 0
-2586 -2591 0
-2586 -2592 0
-2587 -2588 0
-2587 -2589 0
-2587 -2590 0
-2587 -2591 0
-2587 -2592 0
-2588 -2589 0
-2588 -2590 0
-2588 -2591 0
-2588 -2592 0
-2589 -2590 0
-2589 -2591 0
-2589 -2592 0
-2590 -2591 0
-2590 -2592 0
-2591 -2592 0
2593 2594 2595 2596 2597 2598 2599 2600 2601 0
-2593 -2594 0
-2593 -2595 0
-2593 -2596 0
-2593 -2597 0
-2593 -2598 0
-2593 -2599 0
-2593 -2600 0
-2593 -2601 0
-2594 -2595 0
-2594 -2596 0
-2594 -2597 0
-2594 -2598 0
-2594 -2599 0
-2594 -2600 0
-2594 -2601 0
-2595 -2596 0
-2595 -2597 0
-2595 -2598 0
-2595 -2599 0
-2595 -2600 0
-2595 -2601 0
-2596 -2597 0
-2596 -2598 0
-2596 -2599 0
-2596 -2600 0
-2596 -2601 0
-2597 -2598 0
-2597 -2599 0
-2597 -2600 0
-2597 -2601 0
-2598 -2599 0
-2598 -2600 0
-2598 -2601 0
-2599 -2600 0
-2599 -2601 0
-2600 -2601 0
2602 2603 2604 2605 2606 2607 2608 2609 2610 0
-2602 -2603 0
-2602 -2604 0
-2602 -2605 0
-2602 -2606 0
-2602 -2607 0
-2602 -2608 0
-2602 -2609 0
-2602 -2610 0
-2603 -2604 0
-2603 -2605 0
-2603 -2606 0
-2603 -2607 0
-2603 -2608 0
-2603 -2609 0
-2603 -2610 0
-2604 -2605 0
-2604 -2606 0
-2604 -2607 0
-2604 -2608 0
-2604 -2609 0
-2604 -2610 0
-2605 -2606 0
-2605 -2607 0
-2605 -2608 0
-2605 -2609 0
-2605 -2610 0
-2606 -2607 0
-2606 -2608 0
-2606 -2609 0
-2606 -2610 0
-2607 -2608 0
-2607 -2609 0
-2607 -2610 0
-2608 -2609 0
-2608 -2610 0
-2609 -2610 0
2611 2612 2613 2614 2615 2616 2617 2618 2619 0
-2611 -2612 0
-2611 -2613 0
-2611 -2614 0
-2611 -2615 0
-2611 -2616 0
-2611 -2617 0
-2611 -2618 0
-2611 -2619 0
-2612 -2613 0
-2612 -2614 0
-2612 -2615 0
-2612 -2616 0
-2612 -2617 0
-2612 -2618 0
-2612 -2619 0
-2613 -2614 0
-2613 -2615 0
-2613 -2616 0
-2613 -2617 0
-2613 -2618 0
-2613 -2619 0
-2614 -2615 0
-2614 -2616 0
-2614 -2617 0
-2614 -2618 0
-2614 -2619 0
-2615 -2616 0
-2615 -2617 0
-2615 -2618 0
-2615 -2619 0
-2616 -2617 0
-2616 -2618 0
-2616 -2619 0
-2617 -2618 0
-2617 -2619 0
-2618 -2619 0
2620 2621 2622 2623 2624 2625 2626 2627 2628 0
-2620 -2621 0
-2620 -2622 0
-2620 -2623 0
-2620 -2624 0
-2620 -2625 0
-2620 -2626 0
-2620 -2627 0
-2620 -2628 0
-2621 -2622 0
-2621 -2623 0
-2621 -2624 0
-2621 -2625 0
-2621 -2626 0
-2621 -2627 0
-2621 -2628 0
-2622 -2623 0
-2622 -2624 0
-2622 -2625 0
-2622 -2626 0
-2622 -2627 0
-2622 -2628 0
-2623 -2624 0
-2623 -2625 0
-2623 -2626 0
-2623 -2627 0
-2623 -2628 0
-2624 -2625 0
-2624 -2626 0
-2624 -2627 0
-2624 -2628 0
-2625 -2626 0
-2625 -2627 0
-2625 -2628 0
-2626 -2627 0
-2626 -2628 0
-2627 -2628 0
2629 2630 2631 2632 2633 2634 2635 2636 2637 0
-2629 -2630 0
-2629 -2631 0
-2629 -2632 0
-2629 -2633 0
-2629 -2634 0
-2629 -2635 0
-2629 -2636 0
-2629 -2637 0
-2630 -2631 0
-2630 -2632 0
-2630 -2633 0
-2630 -2634 0
-2630 -2635 0
-2630 -2636 0
-2630 -2637 0
-2631 -2632 0
-2631 -2633 0
-2631 -2634 0
-2631 -2635 0
-2631 -2636 0
-2631 -2637 0
-2632 -2633 0
-2632 -2634 0
-2632 -2635 0
-2632 -2636 0
-2632 -2637 0
-2633 -2634 0
-2633 -2635 0
-2633 -2636 0
-2633 -2637 0
-2634 -2635 0
-2634 -2636 0
-2634 -2637 0
-2635 -2636 0
-2635 -2637 0
-2636 -2637 0
2638 2639 2640 2641 2642 2643 2644 2645 2646 0
-2638 -2639 0
-2638 -2640 0
-2638 -2641 0
-2638 -2642 0
-2638 -2643 0
-2638 -2644 0
-2638 -2645 0
-2638 -2646 0
-2639 -2640 0
-2639 -2641 0
-2639 -2642 0
-2639 -2643 0
-2639 -2644 0
-2639 -2645 0
-2639 -2646 0
-2640 -2641 0
-2640 -2642 0
-2640 -2643 0
-2640 -2644 0
-2640 -2645 0
-2640 -2646 0
-2641 -2642 0
-2641 -2643 0
-2641 -2644 0
-2641 -2645 0
-2641 -2646 0
-2642 -2643 0
-2642 -2644 0
-2642 -2645 0
-2642 -2646 0
-2643 -2644 0
-2643 -2645 0
-2643 -2646 0
-2644 -2645 0
-2644 -2646 0
-2645 -2646 0
2647 2648 2649 2650 2651 2652 2653 2654 2655 0
-2647 -2648 0
-2647 -2649 0
-2647 -2650 0
-2647 -2651 0
-2647 -2652 0
-2647 -2653 0
-2647 -2654 0
-2647 -2655 0
-2648 -2649 0
-2648 -2650 0
-2648 -2651 0
-2648 -2652 0
-2648 -2653 0
-2648 -2654 0
-2648 -2655 0
-2649 -2650 0
-2649 -2651 0
-2649 -2652 0
-2649 -2653 0
-2649 -2654 0
-2649 -2655 0
-2650 -2651 0
-2650 -2652 0
-2650 -2653 0
-2650 -2654 0
-2650 -2655 0
-2651 -2652 0
-2651 -2653 0
-2651 -2654 0
-2651 -2655 0
-2652 -2653 0
-2652 -2654 0
-2652 -2655 0
-2653 -2654 0
-2653 -2655 0
-2654 -2655 0
2656 2657 2658 2659 2660 2661 2662 2663 2664 0
-2656 -2657 0
-2656 -2658 0
-2656 -2659 0
-2656 -2660 0
-2656 -2661 0
-2656 -2662 0
-2656 -2663 0
-2656 -2664 0
-2657 -2658 0
-2657 -2659 0
-2657 -2660 0
-2657 -2661 0
-2657 -2662 0
-2657 -2663 0
-2657 -2664 0
-2658 -2659 0
-2658 -2660 0
-2658 -2661 0
-2658 -2662 0
-2658 -2663 0
-2658 -2664 0
-2659 -2660 0
-2659 -2661 0
-2659 -2662 0
-2659 -2663 0
-2659 -2664 0
-2660 -2661 0
-2660 -2662 0
-2660 -2663 0
-2660 -2664 0
-2661 -2662 0
-2661 -2663 0
-2661 -2664 0
-2662 -2663 0
-2662 -2664 0
-2663 -2664 0
2665 2666 2667 2668 2669 2670 2671 2672 2673 0
-2665 -2666 0
-2665 -2667 0
-2665 -2668 0
-2665 -2669 0
-2665 -2670 0
-2665 -2671 0
-2665 -2672 0
-2665 -2673 0
-2666 -2667 0
-2666 -2668 0
-2666 -2669 0
-2666 -2670 0
-2666 -2671 0
-2666 -2672 0
-2666 -2673 0
-2667 -2668 0
-2667 -2669 0
-2667 -2670 0
-2667 -2671 0
-2667 -2672 0
-2667 -2673 0
-2668 -2669 0
-2668 -2670 0
-2668 -2671 0
-2668 -2672 0
-2668 -2673 0
-2669 -2670 0
-2669 -2671 0
-2669 -2672 0
-2669 -2673 0
-2670 -2671 0
-2670 -2672 0
-2670 -2673 0
-2671 -2672 0
-2671 -2673 0
-2672 -2673 0
2674 2675 2676 2677 2678 2679 2680 2681 2682 0
-2674 -2675 0
-2674 -2676 0
-2674 -2677 0
-2674 -2678 0
-2674 -2679 0
-2674 -2680 0
-2674 -2681 0
-2674 -2682 0
-2675 -2676 0
-2675 -2677 0
-2675 -2678 0
-2675 -2679 0
-2675 -2680 0
-2675 -2681 0
-2675 -2682 0
-2676 -2677 0
-2676 -2678 0
-2676 -2679 0
-2676 -2680 0
-2676 -2681 0
-2676 -2682 0
-2677 -2678 0
-2677 -2679 0
-2677 -2680 0
-2677 -2681 0
-2677 -2682 0
-2678 -2679 0
-2678 -2680 0
-2678 -2681 0
-2678 -2682 0
-2679 -2680 0
-2679 -2681 0
-2679 -2682 0
-2680 -2681 0
-2680 -2682 0
-2681 -2682 0
2683 2684 2685 2686 2687 2688 2689 2690 2691 0
-2683 -2684 0
-2683 -2685 0
-2683 -2686 0
-2683 -2687 0
-2683 -2688 0
-2683 -2689 0
-2683 -2690 0
-2683 -2691 0
-2684 -2685 0
-2684 -2686 0
-2684 -2687 0
-2684 -2688 0
-2684 -2689 0
-2684 -2690 0
-2684 -2691 0
-2685 -2686 0
-2685 -2687 0
-2685 -2688 0
-2685 -2689 0
-2685 -2690 0
-2685 -2691 0
-2686 -2687 0
-2686 -2688 0
-2686 -2689 0
-2686 -2690 0
-2686 -2691 0
-2687 -2688 0
-2687 -2689 0
-2687 -2690 0
-2687 -2691 0
-2688 -2689 0
-2688 -2690 0
-2688 -2691 0
-2689 -2690 0
-2689 -2691 0
-2690 -2691 0
2692 2693 2694 2695 2696 2697 2698 2699 2700 0
-2692 -2693 0
-2692 -2694 0
-2692 -2695 0
-2692 -2696 0
-2692 -2697 0
-2692 -2698 0
-2692 -2699 0
-2692 -2700 0
-2693 -2694 0
-2693 -2695 0
-2693 -2696 0
-2693 -2697 0
-2693 -2698 0
-2693 -2699 0
-2693 -2700 0
-2694 -2695 0
-2694 -2696 0
-2694 -2697 0
-2694 -2698 0
-2694 -2699 0
-2694 -2700 0
-2695 -2696 0
-2695 -2697 0
-2695 -2698 0
-2695 -2699 0
-2695 -2700 0
-2696 -2697 0
-2696 -2698 0
-2696 -2699 0
-2696 -2700 0
-2697 -2698 0
-2697 -2699 0
-2697 -2700 0
-2698 -2699 0
-2698 -2700 0
-2699 -2700 0
2701 2702 2703 2704 2705 2706 2707 2708 2709 0
-2701 -2702 0
-2701 -2703 0
-2701 -2704 0
-2701 -2705 0
-2701 -2706 0
-2701 -2707 0
-2701 -2708 0
-2701 -2709 0
-2702 -2703 0
-2702 -2704 0
-2702 -2705 0
-2702 -2706 0
-2702 -2707 0
-2702 -2708 0
-2702 -2709 0
-2703 -2704 0
-2703 -2705 0
-2703 -2706 0
-2703 -2707 0
-2703 -2708 0
-2703 -2709 0
-2704 -2705 0
-2704 -2706 0
-2704 -2707 0
-2704 -2708 0
-2704 -2709 0
-2705 -2706 0
-2705 -2707 0
-2705 -2708 0
-2705 -2709 0
-2706 -2707 0
-2706 -2708 0
-2706 -2709 0
-2707 -2708 0
-2707 -2709 0
-2708 -2709 0
2710 2711 2712 2713 2714 2715 2716 2717 2718 0
-2710 -2711 0
-2710 -2712 0
-2710 -2713 0
-2710 -2714 0
-2710 -2715 0
-2710 -2716 0
-2710 -2717 0
-2710 -2718 0
-2711 -2712 0
-2711 -2713 0
-2711 -2714 0
-2711 -2715 0
-2711 -2716 0
-2711 -2717 0
-2711 -2718 0
-2712 -2713 0
-2712 -2714 0
-2712 -2715 0
-2712 -2716 0
-2712 -2717 0
-2712 -2718 0
-2713 -2714 0
-2713 -2715 0
-2713 -2716 0
-2713 -2717 0
-2713 -2718 0
-2714 -2715 0
-2714 -2716 0
-2714 -2717 0
-2714 -2718 0
-2715 -2716 0
-2715 -2717 0
-2715 -2718 0
-2716 -2717 0
-2716 -2718 0
-2717 -2718 0
2719 2720 2721 2722 2723 2724 2725 2726 2727 0
-2719 -2720 0
-2719 -2721 0
-2719 -2722 0
-2719 -2723 0
-2719 -2724 0
-2719 -2725 0
-2719 -2726 0
-2719 -2727 0
-2720 -2721 0
-2720 -2722 0
-2720 -2723 0
-2720 -2724 0
-2720 -2725 0
-2720 -2726 0
-2720 -2727 0
-2721 -2722 0
-2721 -2723 0
-2721 -2724 0
-2721 -2725 0
-2721 -2726 0
-2721 -2727 0
-2722 -2723 0
-2722 -2724 0
-2722 -2725 0
-2722 -2726 0
-2722 -2727 0
-2723 -2724 0
-2723 -2725 0
-2723 -2726 0
-2723 -2727 0
-2724 -2725 0
-2724 -2726 0
-2724 -2727 0
-2725 -2726 0
-2725 -2727 0
-2726 -2727 0
2728 2729 2730 2731 2732 2733 2734 2735 2736 0
-2728 -2729 0
-2728 -2730 0
-2728 -2731 0
-2728 -2732 0
-2728 -2733 0
-2728 -2734 0
-2728 -2735 0
-2728 -2736 0
-2729 -2730 0
-2729 -2731 0
-2729 -2732 0
-2729 -2733 0
-2729 -2734 0
-2729 -2735 0
-2729 -2736 0
-2730 -2731 0
-2730 -2732 0
-2730 -2733 0
-2730 -2734 0
-2730 -2735 0
-2730 -2736 0
-2731 -2732 0
-2731 -2733 0
-2731 -2734 0
-2731 -2735 0
-2731 -2736 0
-2732 -2733 0
-2732 -2734 0
-2732 -2735 0
-2732 -2736 0
-2733 -2734 0
-2733 -2735 0
-2733 -2736 0
-2734 -2735 0
-2734 -2736 0
-2735 -2736 0
2737 2738 2739 2740 2741 2742 2743 2744 2745 0
-2737 -2738 0
-2737 -2739 0
-2737 -2740 0
-2737 -2741 0
-2737 -2742 0
-2737 -2743 0
-2737 -2744 0
-2737 -2745 0
-2738 -2739 0
-2738 -2740 0
-2738 -2741 0
-2738 -2742 0
-2738 -2743 0
-2738 -2744 0
-2738 -2745 0
-2739 -2740 0
-2739 -2741 0
-2739 -2742 0
-2739 -2743 0
-2739 -2744 0
-2739 -2745 0
-2740 -2741 0
-2740 -2742 0
-2740 -2743 0
-2740 -2744 0
-2740 -2745 0
-2741 -2742 0
-2741 -2743 0
-2741 -2744 0
-2741 -2745 0
-2742 -2743 0
-2742 -2744 0
-2742 -2745 0
-2743 -2744 0
-2743 -2745 0
-2744 -2745 0
2746 2747 2748 2749 2750 2751 2752 2753 2754 0
-2746 -2747 0
-2746 -2748 0
-2746 -2749 0
-2746 -2750 0
-2746 -2751 0
-2746 -2752 0
-2746 -2753 0
-2746 -2754 0
-2747 -2748 0
-2747 -2749 0
-2747 -2750 0
-2747 -2751 0
-2747 -2752 0
-2747 -2753 0
-2747 -2754 0
-2748 -2749 0
-2748 -2750 0
-2748 -2751 0
-2748 -2752 0
-2748 -2753 0
-2748 -2754 0
-2749 -2750 0
-2749 -2751 0
-2749 -2752 0
-2749 -2753 0
-2749 -2754 0
-2750 -2751 0
-2750 -2752 0
-2750 -2753 0
-2750 -2754 0
-2751 -2752 0
-2751 -2753 0
-2751 -2754 0
-2752 -2753 0
-2752 -2754 0
-2753 -2754 0
2755 2756 2757 2758 2759 2760 2761 2762 2763 0
-2755 -2756 0
-2755 -2757 0
-2755 -2758 0
-2755 -2759 0
-2755 -2760 0
-2755 -2761 0
-2755 -2762 0
-2755 -2763 0
-2756 -2757 0
-2756 -2758 0
-2756 -2759 0
-2756 -2760 0
-2756 -2761 0
-2756 -2762 0
-2756 -2763 0
-2757 -2758 0
-2757 -2759 0
-2757 -2760 0
-2757 -2761 0
-2757 -2762 0
-2757 -2763 0
-2758 -2759 0
-2758 -2760 0
-2758 -2761 0
-2758 -2762 0
-2758 -2763 0
-2759 -2760 0
-2759 -2761 0
-2759 -2762 0
-2759 -2763 0
-2760 -2761 0
-2760 -2762 0
-2760 -2763 0
-2761 -2762 0
-2761 -2763 0
-2762 -2763 0
2764 2765 2766 2767 2768 2769 2770 2771 2772 0
-2764 -2765 0
-2764 -2766 0
-2764 -2767 0
-2764 -2768 0
-2764 -2769 0
-2764 -2770 0
-2764 -2771 0
-2764 -2772 0
-2765 -2766 0
-2765 -2767 0
-2765 -2768 0
-2765 -2769 0
-2765 -2770 0
-2765 -2771 0
-2765 -2772 0
-2766 -2767 0
-2766 -2768 0
-2766 -2769 0
-2766 -2770 0
-2766 -2771 0
-2766 -2772 0
-2767 -2768 0
-2767 -2769 0
-2767 -2770 0
-2767 -2771 0
-2767 -2772 0
-2768 -2769 0
-2768 -2770 0
-2768 -2771 0
-2768 -2772 0
-2769 -2770 0
-2769 -2771 0
-2769 -2772 0
-2770 -2771 0
-2770 -2772 0
-2771 -2772 0
2773 2774 2775 2776 2777 2778 2779 2780 2781 0
-2773 -2774 0
-2773 -2775 0
-2773 -2776 0
-2773 -2777 0
-2773 -2778 0
-2773 -2779 0
-2773 -2780 0
-2773 -2781 0
-2774 -2775 0
-2774 -2776 0
-2774 -2777 0
-2774 -2778 0
-2774 -2779 0
-2774 -2780 0
-2774 -2781 0
-2775 -2776 0
-2775 -2777 0
-2775 -2778 0
-2775 -2779 0
-2775 -2780 0
-2775 -2781 0
-2776 -2777 0
-2776 -2778 0
-2776 -2779 0
-2776 -2780 0
-2776 -2781 0
-2777 -2778 0
-2777 -2779 0
-2777 -2780 0
-2777 -2781 0
-2778 -2779 0
-2778 -2780 0
-2778 -2781 0
-2779 -2780 0
-2779 -2781 0
-2780 -2781 0
2782 2783 2784 2785 2786 2787 2788 2789 2790 0
-2782 -2783 0
-2782 -2784 0
-2782 -2785 0
-2782 -2786 0
-2782 -2787 0
-2782 -2788 0
-2782 -2789 0
-2782 -2790 0
-2783 -2784 0
-2783 -2785 0
-2783 -2786 0
-2783 -2787 0
-2783 -2788 0
-2783 -2789 0
-2783 -2790 0
-2784 -2785 0
-2784 -2786 0
-2784 -2787 0
-2784 -2788 0
-2784 -2789 0
-2784 -2790 0
-2785 -2786 0
-2785 -2787 0
-2785 -2788 0
-2785 -2789 0
-2785 -2790 0
-2786 -2787 0
-2786 -2788 0
-2786 -2789 0
-2786 -2790 0
-2787 -2788 0
-2787 -2789 0
-2787 -2790 0
-2788 -2789 0
-2788 -2790 0
-2789 -2790 0
2791 2792 2793 2794 2795 2796 2797 2798 2799 0
-2791 -2792 0
-2791 -2793 0
-2791 -2794 0
-2791 -2795 0
-2791 -2796 0
-2791 -2797 0
-2791 -2798 0
-2791 -2799 0
-2792 -2793 0
-2792 -2794 0
-2792 -2795 0
-2792 -2796 0
-2792 -2797 0
-2792 -2798 0
-2792 -2799 0
-2793 -2794 0
-2793 -2795 0
-2793 -2796 0
-2793 -2797 0
-2793 -2798 0
-2793 -2799 0
-2794 -2795 0
-2794 -2796 0
-2794 -2797 0
-2794 -2798 0
-2794 -2799 0
-2795 -2796 0
-2795 -2797 0
-2795 -2798 0
-2795 -2799 0
-2796 -2797 0
-2796 -2798 0
-2796 -2799 0
-2797 -2798 0
-2797 -2799 0
-2798 -2799 0
2800 2801 2802 2803 2804 2805 2806 2807 2808 0
-2800 -2801 0
-2800 -2802 0
-2800 -2803 0
-2800 -2804 0
-2800 -2805 0
-2800 -2806 0
-2800 -2807 0
-2800 -2808 0
-2801 -2802 0
-2801 -2803 0
-2801 -2804 0
-2801 -2805 0
-2801 -2806 0
-2801 -2807 0
-2801 -2808 0
-2802 -2803 0
-2802 -2804 0
-2802 -2805 0
-2802 -2806 0
-2802 -2807 0
-2802 -2808 0
-2803 -2804 0
-2803 -2805 0
-2803 -2806 0
-2803 -2807 0
-2803 -2808 0
-2804 -2805 0
-2804 -2806 0
-2804 -2807 0
-2804 -2808 0
-2805 -2806 0
-2805 -2807 0
-2805 -2808 0
-2806 -2807 0
-2806 -2808 0
-2807 -2808 0
2809 2810 2811 2812 2813 2814 2815 2816 2817 0
-2809 -2810 0
-2809 -2811 0
-2809 -2812 0
-2809 -2813 0
-2809 -2814 0
-2809 -2815 0
-2809 -2816 0
-2809 -2817 0
-2810 -2811 0
-2810 -2812 0
-2810 -2813 0
-2810 -2814 0
-2810 -2815 0
-2810 -2816 0
-2810 -2817 0
-2811 -2812 0
-2811 -2813 0
-2811 -2814 0
-2811 -2815 0
-2811 -2816 0
-2811 -2817 0
-2812 -2813 0
-2812 -2814 0
-2812 -2815 0
-2812 -2816 0
-2812 -2817 0
-2813 -2814 0
-2813 -2815 0
-2813 -2816 0
-2813 -2817 0
-2814 -2815 0
-2814 -2816 0
-2814 -2817 0
-2815 -2816 0
-2815 -2817 0
-2816 -2817 0
2818 2819 2820 2821 2822 2823 2824 2825 2826 0
-2818 -2819 0
-2818 -2820 0
-2818 -2821 0
-2818 -2822 0
-2818 -2823 0
-2818 -2824 0
-2818 -2825 0
-2818 -2826 0
-2819 -2820 0
-2819 -2821 0
-2819 -2822 0
-2819 -2823 0
-2819 -2824 0
-2819 -2825 0
-2819 -2826 0
-2820 -2821 0
-2820 -2822 0
-2820 -2823 0
-2820 -2824 0
-2820 -2825 0
-2820 -2826 0
-2821 -2822 0
-2821 -2823 0
-2821 -2824 0
-2821 -2825 0
-2821 -2826 0
-2822 -2823 0
-2822 -2824 0
-2822 -2825 0
-2822 -2826 0
-2823 -2824 0
-2823 -2825 0
-2823 -2826 0
-2824 -2825 0
-2824 -2826 0
-2825 -2826 0
2827 2828 2829 2830 2831 2832 2833 2834 2835 0
-2827 -2828 0
-2827 -2829 0
-2827 -2830 0
-2827 -2831 0
-2827 -2832 0
-2827 -2833 0
-2827 -2834 0
-2827 -2835 0
-2828 -2829 0
-2828 -2830 0
-2828 -2831 0
-2828 -2832 0
-2828 -2833 0
-2828 -2834 0
-2828 -2835 0
-2829 -2830 0
-2829 -2831 0
-2829 -2832 0
-2829 -2833 0
-2829 -2834 0
-2829 -2835 0
-2830 -2831 0
-2830 -2832 0
-2830 -2833 0
-2830 -2834 0
-2830 -2835 0
-2831 -2832 0
-2831 -2833 0
-2831 -2834 0
-2831 -2835 0
-2832 -2833 0
-2832 -2834 0
-2832 -2835 0
-2833 -2834 0
-2833 -2835 0
-2834 -2835 0
2836 2837 2838 2839 2840 2841 2842 2843 2844 0
-2836 -2837 0
-2836 -2838 0
-2836 -2839 0
-2836 -2840 0
-2836 -2841 0
-2836 -2842 0
-2836 -2843 0
-2836 -2844 0
-2837 -2838 0
-2837 -2839 0
-2837 -2840 0
-2837 -2841 0
-2837 -2842 0
-2837 -2843 0
-2837 -2844 0
-2838 -2839 0
-2838 -2840 0
-2838 -2841 0
-2838 -2842 0
-2838 -2843 0
-2838 -2844 0
-2839 -2840 0
-2839 -2841 0
-2839 -2842 0
-2839 -2843 0
-2839 -2844 0
-2840 -2841 0
-2840 -2842 0
-2840 -2843 0
-2840 -2844 0
-2841 -2842 0
-2841 -2843 0
-2841 -2844 0
-2842 -2843 0
-2842 -2844 0
-2843 -2844 0
2845 2846 2847 2848 2849 2850 2851 2852 2853 0
-2845 -2846 0
-2845 -2847 0
-2845 -2848 0
-2845 -2849 0
-2845 -2850 0
-2845 -2851 0
-2845 -2852 0
-2845 -2853 0
-2846 -2847 0
-2846 -2848 0
-2846 -2849 0
-2846 -2850 0
-2846 -2851 0
-2846 -2852 0
-2846 -2853 0
-2847 -2848 0
-2847 -2849 0
-2847 -2850 0
-2847 -2851 0
-2847 -2852 0
-2847 -2853 0
-2848 -2849 0
-2848 -2850 0
-2848 -2851 0
-2848 -2852 0
-2848 -2853 0
-2849 -2850 0
-2849 -2851 0
-2849 -2852 0
-2849 -2853 0
-2850 -2851 0
-2850 -2852 0
-2850 -2853 0
-2851 -2852 0
-2851 -2853 0
-2852 -2853 0
2854 2855 2856 2857 2858 2859 2860 2861 2862 0
-2854 -2855 0
-2854 -2856 0
-2854 -2857 0
-2854 -2858 0
-2854 -2859 0
-2854 -2860 0
-2854 -2861 0
-2854 -2862 0
-2855 -2856 0
-2855 -2857 0
-2855 -2858 0
-2855 -2859 0
-2855 -2860 0
-2855 -2861 0
-2855 -2862 0
-2856 -2857 0
-2856 -2858 0
-2856 -2859 0
-2856 -2860 0
-2856 -2861 0
-2856 -2862 0
-2857 -2858 0
-2857 -2859 0
-2857 -2860 0
-2857 -2861 0
-2857 -2862 0
-2858 -2859 0
-2858 -2860 0
-2858 -2861 0
-2858 -2862 0
-2859 -2860 0
-2859 -2861 0
-2859 -2862 0
-2860 -2861 0
-2860 -2862 0
-2861 -2862 0
2863 2864 2865 2866 2867 2868 2869 2870 2871 0
-2863 -2864 0
-2863 -2865 0
-2863 -2866 0
-2863 -2867 0
-2863 -2868 0
-2863 -2869 0
-2863 -2870 0
-2863 -2871 0
-2864 -2865 0
-2864 -2866 0
-2864 -2867 0
-2864 -2868 0
-2864 -2869 0
-2864 -2870 0
-2864 -2871 0
-2865 -2866 0
-2865 -2867 0
-2865 -2868 0
-2865 -2869 0
-2865 -2870 0
-2865 -2871 0
-2866 -2867 0
-2866 -2868 0
-2866 -2869 0
-2866 -2870 0
-2866 -2871 0
-2867 -2868 0
-2867 -2869 0
-2867 -2870 0
-2867 -2871 0
-2868 -2869 0
-2868 -2870 0
-2868 -2871 0
-2869 -2870 0
-2869 -2871 0
-2870 -2871 0
2872 2873 2874 2875 2876 2877 2878 2879 2880 0
-2872 -2873 0
-2872 -2874 0
-2872 -2875 0
-2872 -2876 0
-2872 -2877 0
-2872 -2878 0
-2872 -2879 0
-2872 -2880 0
-2873 -2874 0
-2873 -2875 0
-2873 -2876 0
-2873 -2877 0
-2873 -2878 0
-2873 -2879 0
-2873 -2880 0
-2874 -2875 0
-2874 -2876 0
-2874 -2877 0
-2874 -2878 0
-2874 -2879 0
-2874 -2880 0
-2875 -2876 0
-2875 -2877 0
-2875 -2878 0
-2875 -2879 0
-2875 -2880 0
-2876 -2877 0
-2876 -2878 0
-2876 -2879 0
-2876 -2880 0
-2877 -2878 0
-2877 -2879 0
-2877 -2880 0
-2878 -2879 0
-2878 -2880 0
-2879 -2880 0
2881 2882 2883 2884 2885 2886 2887 2888 2889 0
-2881 -2882 0
-2881 -2883 0
-2881 -2884 0
-2881 -2885 0
-2881 -2886 0
-2881 -2887 0
-2881 -2888 0
-2881 -2889 0
-2882 -2883 0
-2882 -2884 0
-2882 -2885 0
-2882 -2886 0
-2882 -2887 0
-2882 -2888 0
-2882 -2889 0
-2883 -2884 0
-2883 -2885 0
-2883 -2886 0
-2883 -2887 0
-2883 -2888 0
-2883 -2889 0
-2884 -2885 0
-2884 -2886 0
-2884 -2887 0
-2884 -2888 0
-2884 -2889 0
-2885 -2886 0
-2885 -2887 0
-2885 -2888 0
-2885 -2889 0
-2886 -2887 0
-2886 -2888 0
-2886 -2889 0
-2887 -2888 0
-2887 -2889 0
-2888 -2889 0
2890 2891 2892 2893 2894 2895 2896 2897 2898 0
-2890 -2891 0
-2890 -2892 0
-2890 -2893 0
-2890 -2894 0
-2890 -2895 0
-2890 -2896 0
-2890 -2897 0
-2890 -2898 0
-2891 -2892 0
-2891 -2893 0
-2891 -2894 0
-2891 -2895 0
-2891 -2896 0
-2891 -2897 0
-2891 -2898 0
-2892 -2893 0
-2892 -2894 0
-2892 -2895 0
-2892 -2896 0
-2892 -2897 0
-2892 -2898 0
-2893 -2894 0
-2893 -2895 0
-2893 -2896 0
-2893 -2897 0
-2893 -2898 0
-2894 -2895 0
-2894 -2896 0
-2894 -2897 0
-2894 -2898 0
-2895 -2896 0
-2895 -2897 0
-2895 -2898 0
-2896 -2897 0
-2896 -2898 0
-2897 -2898 0
2899 2900 2901 2902 2903 2904 2905 2906 2907 0
-2899 -2900 0
-2899 -2901 0
-2899 -2902 0
-2899 -2903 0
-2899 -2904 0
-2899 -2905 0
-2899 -2906 0
-2899 -2907 0
-2900 -2901 0
-2900 -2902 0
-2900 -2903 0
-2900 -2904 0
-2900 -2905 0
-2900 -2906 0
-2900 -2907 0
-2901 -2902 0
-2901 -2903 0
-2901 -2904 0
-2901 -2905 0
-2901 -2906 0
-2901 -2907 0
-2902 -2903 0
-2902 -2904 0
-2902 -2905 0
-2902 -2906 0
-2902 -2907 0
-2903 -2904 0
-2903 -2905 0
-2903 -2906 0
-2903 -2907 0
-2904 -2905 0
-2904 -2906 0
-2904 -2907 0
-2905 -2906 0
-2905 -2907 0
-2906 -2907 0
2908 2909 2910 2911 2912 2913 2914 2915 2916 0
-2908 -2909 0
-2908 -2910 0
-2908 -2911 0
-2908 -2912 0
-2908 -2913 0
-2908 -2914 0
-2908 -2915 0
-2908 -2916 0
-2909 -2910 0
-2909 -2911 0
-2909 -2912 0
-2909 -2913 0
-2909 -2914 0
-2909 -2915 0
-2909 -2916 0
-2910 -2911 0
-2910 -2912 0
-2910 -2913 0
-2910 -2914 0
-2910 -2915 0
-2910 -2916 0
-2911 -2912 0
-2911 -2913 0
-2911 -2914 0
-2911 -2915 0
-2911 -2916 0
-2912 -2913 0
-2912 -2914 0
-2912 -2915 0
-2912 -2916 0
-2913 -2914 0
-2913 -2915 0
-2913 -2916 0
-2914 -2915 0
-2914 -2916 0
-2915 -2916 0
2917 2918 2919 2920 2921 2922 2923 2924 2925 0
-2917 -2918 0
-2917 -2919 0
-2917 -2920 0
-2917 -2921 0
-2917 -2922 0
-2917 -2923 0
-2917 -2924 0
-2917 -2925 0
-2918 -2919 0
-2918 -2920 0
-2918 -2921 0
-2918 -2922 0
-2918 -2923 0
-2918 -2924 0
-2918 -2925 0
-2919 -2920 0
-2919 -2921 0
-2919 -2922 0
-2919 -2923 0
-2919 -2924 0
-2919 -2925 0
-2920 -2921 0
-2920 -2922 0
-2920 -2923 0
-2920 -2924 0
-2920 -2925 0
-2921 -2922 0
-2921 -2923 0
-2921 -2924 0
-2921 -2925 0
-2922 -2923 0
-2922 -2924 0
-2922 -2925 0
-2923 -2924 0
-2923 -2925 0
-2924 -2925 0
2926 2927 2928 2929 2930 2931 2932 2933 2934 0
-2926 -2927 0
-2926 -2928 0
-2926 -2929 0
-2926 -2930 0
-2926 -2931 0
-2926 -2932 0
-2926 -2933 0
-2926 -2934 0
-2927 -2928 0
-2927 -2929 0
-2927 -2930 0
-2927 -2931 0
-2927 -2932 0
-2927 -2933 0
-2927 -2934 0
-2928 -2929 0
-2928 -2930 0
-2928 -2931 0
-2928 -2932 0
-2928 -2933 0
-2928 -2934 0
-2929 -2930 0
-2929 -2931 0
-2929 -2932 0
-2929 -2933 0
-2929 -2934 0
-2930 -2931 0
-2930 -2932 0
-2930 -2933 0
-2930 -2934 0
-2931 -2932 0
-2931 -2933 0
-2931 -2934 0
-2932 -2933 0
-2932 -2934 0
-2933 -2934 0
2935 2936 2937 2938 2939 2940 2941 2942 2943 0
-2935 -2936 0
-2935 -2937 0
-2935 -2938 0
-2935 -2939 0
-2935 -2940 0
-2935 -2941 0
-2935 -2942 0
-2935 -2943 0
-2936 -2937 0
-2936 -2938 0
-2936 -2939 0
-2936 -2940 0
-2936 -2941 0
-2936 -2942 0
-2936 -2943 0
-2937 -2938 0
-2937 -2939 0
-2937 -2940 0
-2937 -2941 0
-2937 -2942 0
-2937 -2943 0
-2938 -2939 0
-2938 -2940 0
-2938 -2941 0
-2938 -2942 0
-2938 -2943 0
-2939 -2940 0
-2939 -2941 0
-2939 -2942 0
-2939 -2943 0
-2940 -2941 0
-2940 -2942 0
-2940 -2943 0
-2941 -2942 0
-2941 -2943 0
-2942 -2943 0
2944 2945 2946 2947 2948 2949 2950 2951 2952 0
-2944 -2945 0
-2944 -2946 0
-2944 -2947 0
-2944 -2948 0
-2944 -2949 0
-2944 -2950 0
-2944 -2951 0
-2944 -2952 0
-2945 -2946 0
-2945 -2947 0
-2945 -2948 0
-2945 -2949 0
-2945 -2950 0
-2945 -2951 0
-2945 -2952 0
-2946 -2947 0
-2946 -2948 0
-2946 -2949 0
-2946 -2950 0
-2946 -2951 0
-2946 -2952 0
-2947 -2948 0
-2947 -2949 0
-2947 -2950 0
-2947 -2951 0
-2947 -2952 0
-2948 -2949 0
-2948 -2950 0
-2948 -2951 0
-2948 -2952 0
-2949 -2950 0
-2949 -2951 0
-2949 -2952 0
-2950 -2951 0
-2950 -2952 0
-2951 -2952 0
-1 -10 0
-2 -11 0
-3 -12 0
-4 -13 0
-5 -14 0
-6 -15 0
-7 -16 0
-8 -17 0
-9 -18 0
-1 -19 0
-2 -20 0
-3 -21 0
-4 -22 0
-5 -23 0
-6 -24 0
-7 -25 0
-8 -26 0
-9 -27 0
-1 -28 0
-2 -29 0
-3 -30 0
-4 -31 0
-5 -32 0
-6 -33 0
-7 -34 0
-8 -35 0
-9 -36 0
-1 -37 0
-2 -38 0
-3 -39 0
-4 -40 0
-5 -41 0
-6 -42 0
-7 -43 0
-8 -44 0
-9 -45 0
-1 -46 0
-2 -47 0
-3 -48 0
-4 -49 0
-5 -50 0
-6 -51 0
-7 -52 0
-8 -53 0
-9 -54 0
-1 -55 0
-2 -56 0
-3 -57 0
-4 -58 0
-5 -59 0
-6 -60 0
-7 -61 0
-8 -62 0
-9 -63 0
-1 -64 0
-2 -65 0
-3 -66 0
-4 -67 0
-5 -68 0
-6 -69 0
-7 -70 0
-8 -71 0
-9 -72 0
-1 -73 0
-2 -74 0
-3 -75 0
-4 -76 0
-5 -77 0
-6 -78 0
-7 -79 0
-8 -80 0
-9 -81 0
-1 -82 0
-2 -83 0
-3 -84 0
-4 -85 0
-5 -86 0
-6 -87 0
-7 -88 0
-8 -89 0
-9 -90 0
-1 -91 0
-2 -92 0
-3 -93 0
-4 -94 0
-5 -95 0
-6 -96 0
-7 -97 0
-8 -98 0
-9 -99 0
-1 -100 0
-2 -101 0
-3 -102 0
-4 -103 0
-5 -104 0
-6 -105 0
-7 -106 0
-8 -107 0
-9 -108 0
-1 -109 0
-2 -110 0
-3 -111 0
-4 -112 0
-5 -113 0
-6 -114 0
-7 -115 0
-8 -116 0
-9 -117 0
-1 -145 0
-2 -146 0
-3 -147 0
-4 -148 0
-5 -149 0
-6 -150 0
-7 -151 0
-8 -152 0
-9 -153 0
-1 -154 0
-2 -155 0
-3 -156 0
-4 -157 0
-5 -158 0
-6 -159 0
-7 -160 0
-8 -161 0
-9 -162 0
-1 -163 0
-2 -164 0
-3 -165 0
-4 -166 0
-5 -167 0
-6 -168 0
-7 -169 0
-8 -170 0
-9 -171 0
-1 -199 0
-2 -200 0
-3 -201 0
-4 -202 0
-5 -203 0
-6 -204 0
-7 -205 0
-8 -206 0
-9 -207 0
-1 -208 0
-2 -209 0
-3 -210 0
-4 -211 0
-5 -212 0
-6 -213 0
-7 -214 0
-8 -215 0
-9 -216 0
-1 -226 0
-2 -227 0
-3 -228 0
-4 -229 0
-5 -230 0
-6 -231 0
-7 -232 0
-8 -233 0
-9 -234 0
-1 -253 0
-2 -254 0
-3 -255 0
-4 -256 0
-5 -257 0
-6 -258 0
-7 -259 0
-8 -260 0
-9 -261 0
-1 -280 0
-2 -281 0
-3 -282 0
-4 -283 0
-5 -284 0
-6 -285 0
-7 -286 0
-8 -287 0
-9 -288 0
-1 -298 0
-2 -299 0
-3 -300 0
-4 -301 0
-5 -302 0
-6 -303 0
-7 -304 0
-8 -305 0
-9 -306 0
-1 -307 0
-2 -308 0
-3 -309 0
-4 -310 0
-5 -311 0
-6 -312 0
-7 -313 0
-8 -314 0
-9 -315 0
-1 -325 0
-2 -326 0
-3 -327 0
-4 -328 0
-5 -329 0
-6 -330 0
-7 -331 0
-8 -332 0
-9 -333 0
-1 -352 0
-2 -353 0
-3 -354 0
-4 -355 0
-5 -356 0
-6 -357 0
-7 -358 0
-8 -359 0
-9 -360 0
-1 -586 0
-2 -587 0
-3 -588 0
-4 -589 0
-5 -590 0
-6 -591 0
-7 -592 0
-8 -593 0
-9 -594 0
-1 -595 0
-2 -596 0
-3 -597 0
-4 -598 0
-5 -599 0
-6 -600 0
-7 -601 0
-8 -602 0
-9 -603 0
-1 -604 0
-2 -605 0
-3 -606 0
-4 -607 0
-5 -608 0
-6 -609 0
-7 -610 0
-8 -611 0
-9 -612 0
-1 -613 0
-2 -614 0
-3 -615 0
-4 -616 0
-5 -617 0
-6 -618 0
-7 -619 0
-8 -620 0
-9 -621 0
-1 -622 0
-2 -623 0
-3 -624 0
-4 -625 0
-5 -626 0
-6 -627 0
-7 -628 0
-8 -629 0
-9 -630 0
-1 -631 0
-2 -632 0
-3 -633 0
-4 -634 0
-5 -635 0
-6 -636 0
-7 -637 0
-8 -638 0
-9 -639 0
-1 -640 0
-2 -641 0
-3 -642 0
-4 -643 0
-5 -644 0
-6 -645 0
-7 -646 0
-8 -647 0
-9 -648 0
-1 -649 0
-2 -650 0
-3 -651 0
-4 -652 0
-5 -653 0
-6 -654 0
-7 -655 0
-8 -656 0
-9 -657 0
-1 -658 0
-2 -659 0
-3 -660 0
-4 -661 0
-5 -662 0
-6 -663 0
-7 -664 0
-8 -665 0
-9 -666 0
-1 -667 0
-2 -668 0
-3 -669 0
-4 -670 0
-5 -671 0
-6 -672 0
-7 -673 0
-8 -674 0
-9 -675 0
-1 -676 0
-2 -677 0
-3 -678 0
-4 -679 0
-5 -680 0
-6 -681 0
-7 -682 0
-8 -683 0
-9 -684 0
-1 -685 0
-2 -686 0
-3 -687 0
-4 -688 0
-5 -689 0
-6 -690 0
-7 -691 0
-8 -692 0
-9 -693 0
-1 -694 0
-2 -695 0
-3 -696 0
-4 -697 0
-5 -698 0
-6 -699 0
-7 -700 0
-8 -701 0
-9 -702 0
-1 -703 0
-2 -704 0
-3 -705 0
-4 -706 0
-5 -707 0
-6 -708 0
-7 -709 0
-8 -710 0
-9 -711 0
-1 -712 0
-2 -713 0
-3 -714 0
-4 -715 0
-5 -716 0
-6 -717 0
-7 -718 0
-8 -719 0
-9 -720 0
-1 -721 0
-2 -722 0
-3 -723 0
-4 -724 0
-5 -725 0
-6 -726 0
-7 -727 0
-8 -728 0
-9 -729 0
-1 -730 0
-2 -731 0
-3 -732 0
-4 -733 0
-5 -734 0
-6 -735 0
-7 -736 0
-8 -737 0
-9 -738 0
-1 -739 0
-2 -740 0
-3 -741 0
-4 -742 0
-5 -743 0
-6 -744 0
-7 -745 0
-8 -746 0
-9 -747 0
-1 -748 0
-2 -749 0
-3 -750 0
-4 -751 0
-5 -752 0
-6 -753 0
-7 -754 0
-8 -755 0
-9 -756 0
-1 -757 0
-2 -758 0
-3 -759 0
-4 -760 0
-5 -761 0
-6 -762 0
-7 -763 0
-8 -764 0
-9 -765 0
-1 -766 0
-2 -767 0
-3 -768 0
-4 -769 0
-5 -770 0
-6 -771 0
-7 -772 0
-8 -773 0
-9 -774 0
-1 -775 0
-2 -776 0
-3 -777 0
-4 -778 0
-5 -779 0
-6 -780 0
-7 -781 0
-8 -782 0
-9 -783 0
-1 -784 0
-2 -785 0
-3 -786 0
-4 -787 0
-5 -788 0
-6 -789 0
-7 -790 0
-8 -791 0
-9 -792 0
-1 -793 0
-2 -794 0
-3 -795 0
-4 -796 0
-5 -797 0
-6 -798 0
-7 -799 0
-8 -800 0
-9 -801 0
-1 -802 0
-2 -803 0
-3 -804 0
-4 -805 0
-5 -806 0
-6 -807 0
-7 -808 0
-8 -809 0
-9 -810 0
-1 -811 0
-2 -812 0
-3 -813 0
-4 -814 0
-5 -815 0
-6 -816 0
-7 -817 0
-8 -818 0
-9 -819 0
-1 -820 0
-2 -821 0
-3 -822 0
-4 -823 0
-5 -824 0
-6 -825 0
-7 -826 0
-8 -827 0
-9 -828 0
-1 -829 0
-2 -830 0
-3 -831 0
-4 -832 0
-5 -833 0
-6 -834 0
-7 -835 0
-8 -836 0
-9 -837 0
-1 -838 0
-2 -839 0
-3 -840 0
-4 -841 0
-5 -842 0
-6 -843 0
-7 -844 0
-8 -845 0
-9 -846 0
-1 -847 0
-2 -848 0
-3 -849 0
-4 -850 0
-5 -851 0
-6 -852 0
-7 -853 0
-8 -854 0
-9 -855 0
-1 -856 0
-2 -857 0
-3 -858 0
-4 -859 0
-5 -860 0
-6 -861 0
-7 -862 0
-8 -863 0
-9 -864 0
-1 -865 0
-2 -866 0
-3 -867 0
-4 -868 0
-5 -869 0
-6 -870 0
-7 -871 0
-8 -872 0
-9 -873 0
-1 -874 0
-2 -875 0
-3 -876 0
-4 -877 0
-5 -878 0
-6 -879 0
-7 -880 0
-8 -881 0
-9 -882 0
-1 -883 0
-2 -884 0
-3 -885 0
-4 -886 0
-5 -887 0
-6 -888 0
-7 -889 0
-8 -890 0
-9 -891 0
-1 -892 0
-2 -893 0
-3 -894 0
-4 -895 0
-5 -896 0
-6 -897 0
-7 -898 0
-8 -899 0
-9 -900 0
-1 -901 0
-2 -902 0
-3 -903 0
-4 -904 0
-5 -905 0
-6 -906 0
-7 -907 0
-8 -908 0
-9 -909 0
-1 -910 0
-2 -911 0
-3 -912 0
-4 -913 0
-5 -914 0
-6 -915 0
-7 -916 0
-8 -917 0
-9 -918 0
-1 -919 0
-2 -920 0
-3 -921 0
-4 -922 0
-5 -923 0
-6 -924 0
-7 -925 0
-8 -926 0
-9 -927 0
-1 -928 0
-2 -929 0
-3 -930 0
-4 -931 0
-5 -932 0
-6 -933 0
-7 -934 0
-8 -935 0
-9 -936 0
-1 -937 0
-2 -938 0
-3 -939 0
-4 -940 0
-5 -941 0
-6 -942 0
-7 -943 0
-8 -944 0
-9 -945 0
-1 -946 0
-2 -947 0
-3 -948 0
-4 -949 0
-5 -950 0
-6 -951 0
-7 -952 0
-8 -953 0
-9 -954 0
-1 -955 0
-2 -956 0
-3 -957 0
-4 -958 0
-5 -959 0
-6 -960 0
-7 -961 0
-8 -962 0
-9 -963 0
-1 -964 0
-2 -965 0
-3 -966 0
-4 -967 0
-5 -968 0
-6 -969 0
-7 -970 0
-8 -971 0
-9 -972 0
-1 -973 0
-2 -974 0
-3 -975 0
-4 -976 0
-5 -977 0
-6 -978 0
-7 -979 0
-8 -980 0
-9 -981 0
-1 -982 0
-2 -983 0
-3 -984 0
-4 -985 0
-5 -986 0
-6 -987 0
-7 -988 0
-8 -989 0
-9 -990 0
-1 -991 0
-2 -992 0
-3 -993 0
-4 -994 0
-5 -995 0
-6 -996 0
-7 -997 0
-8 -998 0
-9 -999 0
-1 -1000 0
-2 -1001 0
-3 -1002 0
-4 -1003 0
-5 -1004 0
-6 -1005 0
-7 -1006 0
-8 -1007 0
-9 -1008 0
-1 -1009 0
-2 -1010 0
-3 -1011 0
-4 -1012 0
-5 -1013 0
-6 -1014 0
-7 -1015 0
-8 -1016 0
-9 -1017 0
-10 -19 0
-11 -20 0
-12 -21 0
-13 -22 0
-14 -23 0
-15 -24 0
-16 -25 0
-17 -26 0
-18 -27 0
-10 -28 0
-11 -29 0
-12 -30 0
-13 -31 0
-14 -32 0
-15 -33 0
-16 -34 0
-17 -35 0
-18 -36 0
-10 -37 0
-11 -38 0
-12 -39 0
-13 -40 0
-14 -41 0
-15 -42 0
-16 -43 0
-17 -44 0
-18 -45 0
-10 -46 0
-11 -47 0
-12 -48 0
-13 -49 0
-14 -50 0
-15 -51 0
-16 -52 0
-17 -53 0
-18 -54 0
-10 -64 0
-11 -65 0
-12 -66 0
-13 -67 0
-14 -68 0
-15 -69 0
-16 -70 0
-17 -71 0
-18 -72 0
-10 -91 0
-11 -92 0
-12 -93 0
-13 -94 0
-14 -95 0
-15 -96 0
-16 -97 0
-17 -98 0
-18 -99 0
-10 -100 0
-11 -101 0
-12 -102 0
-13 -103 0
-14 -104 0
-15 -105 0
-16 -106 0
-17 -107 0
-18 -108 0
-10 -145 0
-11 -146 0
-12 -147 0
-13 -148 0
-14 -149 0
-15 -150 0
-16 -151 0
-17 -152 0
-18 -153 0
-10 -154 0
-11 -155 0
-12 -156 0
-13 -157 0
-14 -158 0
-15 -159 0
-16 -160 0
-17 -161 0
-18 -162 0
-10 -262 0
-11 -263 0
-12 -264 0
-13 -265 0
-14 -266 0
-15 -267 0
-16 -268 0
-17 -269 0
-18 -270 0
-10 -289 0
-11 -290 0
-12 -291 0
-13 -292 0
-14 -293 0
-15 -294 0
-16 -295 0
-17 -296 0
-18 -297 0
-10 -307 0
-11 -308 0
-12 -309 0
-13 -310 0
-14 -311 0
-15 -312 0
-16 -313 0
-17 -314 0
-18 -315 0
-10 -397 0
-11 -398 0
-12 -399 0
-13 -400 0
-14 -401 0
-15 -402 0
-16 -403 0
-17 -404 0
-18 -405 0
-10 -847 0
-11 -848 0
-12 -849 0
-13 -850 0
-14 -851 0
-15 -852 0
-16 -853 0
-17 -854 0
-18 -855 0
-10 -892 0
-11 -893 0
-12 -894 0
-13 -895 0
-14 -896 0
-15 -897 0
-16 -898 0
-17 -899 0
-18 -900 0
-10 -1018 0
-11 -1019 0
-12 -1020 0
-13 -1021 0
-14 -1022 0
-15 -1023 0
-16 -1024 0
-17 -1025 0
-18 -1026 0
-10 -1027 0
-11 -1028 0
-12 -1029 0
-13 -1030 0
-14 -1031 0
-15 -1032 0
-16 -1033 0
-17 -1034 0
-18 -1035 0
-10 -1036 0
-11 -1037 0
-12 -1038 0
-13 -1039 0
-14 -1040 0
-15 -1041 0
-16 -1042 0
-17 -1043 0
-18 -1044 0
-10 -1045 0
-11 -1046 0
-12 -1047 0
-13 -1048 0
-14 -1049 0
-15 -1050 0
-16 -1051 0
-17 -1052 0
-18 -1053 0
-10 -1054 0
-11 -1055 0
-12 -1056 0
-13 -1057 0
-14 -1058 0
-15 -1059 0
-16 -1060 0
-17 -1061 0
-18 -1062 0
-10 -1063 0
-11 -1064 0
-12 -1065 0
-13 -1066 0
-14 -1067 0
-15 -1068 0
-16 -1069 0
-17 -1070 0
-18 -1071 0
-10 -1072 0
-11 -1073 0
-12 -1074 0
-13 -1075 0
-14 -1076 0
-15 -1077 0
-16 -1078 0
-17 -1079 0
-18 -1080 0
-10 -1081 0
-11 -1082 0
-12 -1083 0
-13 -1084 0
-14 -1085 0
-15 -1086 0
-16 -1087 0
-17 -1088 0
-18 -1089 0
-10 -1090 0
-11 -1091 0
-12 -1092 0
-13 -1093 0
-14 -1094 0
-15 -1095 0
-16 -1096 0
-17 -1097 0
-18 -1098 0
-10 -1099 0
-11 -1100 0
-12 -1101 0
-13 -1102 0
-14 -1103 0
-15 -1104 0
-16 -1105 0
-17 -1106 0
-18 -1107 0
-10 -1108 0
-11 -1109 0
-12 -1110 0
-13 -1111 0
-14 -1112 0
-15 -1113 0
-16 -1114 0
-17 -1115 0
-18 -1116 0
-10 -1117 0
-11 -1118 0
-12 -1119 0
-13 -1120 0
-14 -1121 0
-15 -1122 0
-16 -1123 0
-17 -1124 0
-18 -1125 0
-10 -1126 0
-11 -1127 0
-12 -1128 0
-13 -1129 0
-14 -1130 0
-15 -1131 0
-16 -1132 0
-17 -1133 0
-18 -1134 0
-10 -1135 0
-11 -1136 0
-12 -1137 0
-13 -1138 0
-14 -1139 0
-15 -1140 0
-16 -1141 0
-17 -1142 0
-18 -1143 0
-10 -1144 0
-11 -1145 0
-12 -1146 0
-13 -1147 0
-14 -1148 0
-15 -1149 0
-16 -1150 0
-17 -1151 0
-18 -1152 0
-10 -1153 0
-11 -1154 0
-12 -1155 0
-13 -1156 0
-14 -1157 0
-15 -1158 0
-16 -1159 0
-17 -1160 0
-18 -1161 0
-10 -1162 0
-11 -1163 0
-12 -1164 0
-13 -1165 0
-14 -1166 0
-15 -1167 0
-16 -1168 0
-17 -1169 0
-18 -1170 0
-10 -1171 0
-11 -1172 0
-12 -1173 0
-13 -1174 0
-14 -1175 0
-15 -1176 0
-16 -1177 0
-17 -1178 0
-18 -1179 0
-10 -1180 0
-11 -1181 0
-12 -1182 0
-13 -1183 0
-14 -1184 0
-15 -1185 0
-16 -1186 0
-17 -1187 0
-18 -1188 0
-10 -1189 0
-11 -1190 0
-12 -1191 0
-13 -1192 0
-14 -1193 0
-15 -1194 0
-16 -1195 0
-17 -1196 0
-18 -1197 0
-10 -1198 0
-11 -1199 0
-12 -1200 0
-13 -1201 0
-14 -1202 0
-15 -1203 0
-16 -1204 0
-17 -1205 0
-18 -1206 0
-10 -1207 0
-11 -1208 0
-12 -1209 0
-13 -1210 0
-14 -1211 0
-15 -1212 0
-16 -1213 0
-17 -1214 0
-18 -1215 0
-10 -1216 0
-11 -1217 0
-12 -1218 0
-13 -1219 0
-14 -1220 0
-15 -1221 0
-16 -1222 0
-17 -1223 0
-18 -1224 0
-10 -1225 0
-11 -1226 0
-12 -1227 0
-13 -1228 0
-14 -1229 0
-15 -1230 0
-16 -1231 0
-17 -1232 0
-18 -1233 0
-10 -1234 0
-11 -1235 0
-12 -1236 0
-13 -1237 0
-14 -1238 0
-15 -1239 0
-16 -1240 0
-17 -1241 0
-18 -1242 0
-10 -1243 0
-11 -1244 0
-12 -1245 0
-13 -1246 0
-14 -1247 0
-15 -1248 0
-16 -1249 0
-17 -1250 0
-18 -1251 0
-19 -28 0
-20 -29 0
-21 -30 0
-22 -31 0
-23 -32 0
-24 -33 0
-25 -34 0
-26 -35 0
-27 -36 0
-19 -37 0
-20 -38 0
-21 -39 0
-22 -40 0
-23 -41 0
-24 -42 0
-25 -43 0
-26 -44 0
-27 -45 0
-19 -55 0
-20 -56 0
-21 -57 0
-22 -58 0
-23 -59 0
-24 -60 0
-25 -61 0
-26 -62 0
-27 -63 0
-19 -73 0
-20 -74 0
-21 -75 0
-22 -76 0
-23 -77 0
-24 -78 0
-25 -79 0
-26 -80 0
-27 -81 0
-19 -91 0
-20 -92 0
-21 -93 0
-22 -94 0
-23 -95 0
-24 -96 0
-25 -97 0
-26 -98 0
-27 -99 0
-19 -109 0
-20 -110 0
-21 -111 0
-22 -112 0
-23 -113 0
-24 -114 0
-25 -115 0
-26 -116 0
-27 -117 0
-19 -145 0
-20 -146 0
-21 -147 0
-22 -148 0
-23 -149 0
-24 -150 0
-25 -151 0
-26 -152 0
-27 -153 0
-19 -163 0
-20 -164 0
-21 -165 0
-22 -166 0
-23 -167 0
-24 -168 0
-25 -169 0
-26 -170 0
-27 -171 0
-19 -271 0
-20 -272 0
-21 -273 0
-22 -274 0
-23 -275 0
-24 -276 0
-25 -277 0
-26 -278 0
-27 -279 0
-19 -316 0
-20 -317 0
-21 -318 0
-22 -319 0
-23 -320 0
-24 -321 0
-25 -322 0
-26 -323 0
-27 -324 0
-19 -325 0
-20 -326 0
-21 -327 0
-22 -328 0
-23 -329 0
-24 -330 0
-25 -331 0
-26 -332 0
-27 -333 0
-19 -397 0
-20 -398 0
-21 -399 0
-22 -400 0
-23 -401 0
-24 -402 0
-25 -403 0
-26 -404 0
-27 -405 0
-19 -838 0
-20 -839 0
-21 -840 0
-22 -841 0
-23 -842 0
-24 -843 0
-25 -844 0
-26 -845 0
-27 -846 0
-19 -901 0
-20 -902 0
-21 -903 0
-22 -904 0
-23 -905 0
-24 -906 0
-25 -907 0
-26 -908 0
-27 -909 0
-19 -1027 0
-20 -1028 0
-21 -1029 0
-22 -1030 0
-23 -1031 0
-24 -1032 0
-25 -1033 0
-26 -1034 0
-27 -1035 0
-19 -1054 0
-20 -1055 0
-21 -1056 0
-22 -1057 0
-23 -1058 0
-24 -1059 0
-25 -1060 0
-26 -1061 0
-27 -1062 0
-19 -1144 0
-20 -1145 0
-21 -1146 0
-22 -1147 0
-23 -1148 0
-24 -1149 0
-25 -1150 0
-26 -1151 0
-27 -1152 0
-19 -1216 0
-20 -1217 0
-21 -1218 0
-22 -1219 0
-23 -1220 0
-24 -1221 0
-25 -1222 0
-26 -1223 0
-27 -1224 0
-19 -1234 0
-20 -1235 0
-21 -1236 0
-22 -1237 0
-23 -1238 0
-24 -1239 0
-25 -1240 0
-26 -1241 0
-27 -1242 0
-19 -1252 0
-20 -1253 0
-21 -1254 0
-22 -1255 0
-23 -1256 0
-24 -1257 0
-25 -1258 0
-26 -1259 0
-27 -1260 0
-19 -1261 0
-20 -1262 0
-21 -1263 0
-22 -1264 0
-23 -1265 0
-24 -1266 0
-25 -1267 0
-26 -1268 0
-27 -1269 0
-19 -1270 0
-20 -1271 0
-21 -1272 0
-22 -1273 0
-23 -1274 0
-24 -1275 0
-25 -1276 0
-26 -1277 0
-27 -1278 0
-19 -1279 0
-20 -1280 0
-21 -1281 0
-22 -1282 0
-23 -1283 0
-24 -1284 0
-25 -1285 0
-26 -1286 0
-27 -1287 0
-19 -1288 0
-20 -1289 0
-21 -1290 0
-22 -1291 0
-23 -1292 0
-24 -1293 0
-25 -1294 0
-26 -1295 0
-27 -1296 0
-19 -1297 0
-20 -1298 0
-21 -1299 0
-22 -1300 0
-23 -1301 0
-24 -1302 0
-25 -1303 0
-26 -1304 0
-27 -1305 0
-19 -1306 0
-20 -1307 0
-21 -1308 0
-22 -1309 0
-23 -1310 0
-24 -1311 0
-25 -1312 0
-26 -1313 0
-27 -1314 0
-19 -1315 0
-20 -1316 0
-21 -1317 0
-22 -1318 0
-23 -1319 0
-24 -1320 0
-25 -1321 0
-26 -1322 0
-27 -1323 0
-19 -1324 0
-20 -1325 0
-21 -1326 0
-22 -1327 0
-23 -1328 0
-24 -1329 0
-25 -1330 0
-26 -1331 0
-27 -1332 0
-19 -1333 0
-20 -1334 0
-21 -1335 0
-22 -1336 0
-23 -1337 0
-24 -1338 0
-25 -1339 0
-26 -1340 0
-27 -1341 0
-19 -1342 0
-20 -1343 0
-21 -1344 0
-22 -1345 0
-23 -1346 0
-24 -1347 0
-25 -1348 0
-26 -1349 0
-27 -1350 0
-19 -1351 0
-20 -1352 0
-21 -1353 0
-22 -1354 0
-23 -1355 0
-24 -1356 0
-25 -1357 0
-26 -1358 0
-27 -1359 0
-19 -1360 0
-20 -1361 0
-21 -1362 0
-22 -1363 0
-23 -1364 0
-24 -1365 0
-25 -1366 0
-26 -1367 0
-27 -1368 0
-19 -1369 0
-20 -1370 0
-21 -1371 0
-22 -1372 0
-23 -1373 0
-24 -1374 0
-25 -1375 0
-26 -1376 0
-27 -1377 0
-19 -1378 0
-20 -1379 0
-21 -1380 0
-22 -1381 0
-23 -1382 0
-24 -1383 0
-25 -1384 0
-26 -1385 0
-27 -1386 0
-19 -1387 0
-20 -1388 0
-21 -1389 0
-22 -1390 0
-23 -1391 0
-24 -1392 0
-25 -1393 0
-26 -1394 0
-27 -1395 0
-19 -1396 0
-20 -1397 0
-21 -1398 0
-22 -1399 0
-23 -1400 0
-24 -1401 0
-25 -1402 0
-26 -1403 0
-27 -1404 0
-19 -1405 0
-20 -1406 0
-21 -1407 0
-22 -1408 0
-23 -1409 0
-24 -1410 0
-25 -1411 0
-26 -1412 0
-27 -1413 0
-19 -1414 0
-20 -1415 0
-21 -1416 0
-22 -1417 0
-23 -1418 0
-24 -1419 0
-25 -1420 0
-26 -1421 0
-27 -1422 0
-19 -1423 0
-20 -1424 0
-21 -1425 0
-22 -1426 0
-23 -1427 0
-24 -1428 0
-25 -1429 0
-26 -1430 0
-27 -1431 0
-19 -1432 0
-20 -1433 0
-21 -1434 0
-22 -1435 0
-23 -1436 0
-24 -1437 0
-25 -1438 0
-26 -1439 0
-27 -1440 0
-28 -46 0
-29 -47 0
-30 -48 0
-31 -49 0
-32 -50 0
-33 -51 0
-34 -52 0
-35 -53 0
-36 -54 0
-28 -55 0
-29 -56 0
-30 -57 0
-31 -58 0
-32 -59 0
-33 -60 0
-34 -61 0
-35 -62 0
-36 -63 0
-28 -82 0
-29 -83 0
-30 -84 0
-31 -85 0
-32 -86 0
-33 -87 0
-34 -88 0
-35 -89 0
-36 -90 0
-28 -100 0
-29 -101 0
-30 -102 0
-31 -103 0
-32 -104 0
-33 -105 0
-34 -106 0
-35 -107 0
-36 -108 0
-28 -109 0
-29 -110 0
-30 -111 0
-31 -112 0
-32 -113 0
-33 -114 0
-34 -115 0
-35 -116 0
-36 -117 0
-28 -154 0
-29 -155 0
-30 -156 0
-31 -157 0
-32 -158 0
-33 -159 0
-34 -160 0
-35 -161 0
-36 -162 0
-28 -163 0
-29 -164 0
-30 -165 0
-31 -166 0
-32 -167 0
-33 -168 0
-34 -169 0
-35 -170 0
-36 -171 0
-28 -334 0
-29 -335 0
-30 -336 0
-31 -337 0
-32 -338 0
-33 -339 0
-34 -340 0
-35 -341 0
-36 -342 0
-28 -343 0
-29 -344 0
-30 -345 0
-31 -346 0
-32 -347 0
-33 -348 0
-34 -349 0
-35 -350 0
-36 -351 0
-28 -352 0
-29 -353 0
-30 -354 0
-31 -355 0
-32 -356 0
-33 -357 0
-34 -358 0
-35 -359 0
-36 -360 0
-28 -397 0
-29 -398 0
-30 -399 0
-31 -400 0
-32 -401 0
-33 -402 0
-34 -403 0
-35 -404 0
-36 -405 0
-28 -874 0
-29 -875 0
-30 -876 0
-31 -877 0
-32 -878 0
-33 -879 0
-34 -880 0
-35 -881 0
-36 -882 0
-28 -883 0
-29 -884 0
-30 -885 0
-31 -886 0
-32 -887 0
-33 -888 0
-34 -889 0
-35 -890 0
-36 -891 0
-28 -1036 0
-29 -1037 0
-30 -1038 0
-31 -1039 0
-32 -1040 0
-33 -1041 0
-34 -1042 0
-35 -1043 0
-36 -1044 0
-28 -1045 0
-29 -1046 0
-30 -1047 0
-31 -1048 0
-32 -1049 0
-33 -1050 0
-34 -1051 0
-35 -1052 0
-36 -1053 0
-28 -1144 0
-29 -1145 0
-30 -1146 0
-31 -1147 0
-32 -1148 0
-33 -1149 0
-34 -1150 0
-35 -1151 0
-36 -1152 0
-28 -1225 0
-29 -1226 0
-30 -1227 0
-31 -1228 0
-32 -1229 0
-33 -1230 0
-34 -1231 0
-35 -1232 0
-36 -1233 0
-28 -1243 0
-29 -1244 0
-30 -1245 0
-31 -1246 0
-32 -1247 0
-33 -1248 0
-34 -1249 0
-35 -1250 0
-36 -1251 0
-28 -1261 0
-29 -1262 0
-30 -1263 0
-31 -1264 0
-32 -1265 0
-33 -1266 0
-34 -1267 0
-35 -1268 0
-36 -1269 0
-28 -1270 0
-29 -1271 0
-30 -1272 0
-31 -1273 0
-32 -1274 0
-33 -1275 0
-34 -1276 0
-35 -1277 0
-36 -1278 0
-28 -1423 0
-29 -1424 0
-30 -1425 0
-31 -1426 0
-32 -1427 0
-33 -1428 0
-34 -1429 0
-35 -1430 0
-36 -1431 0
-28 -1432 0
-29 -1433 0
-30 -1434 0
-31 -1435 0
-32 -1436 0
-33 -1437 0
-34 -1438 0
-35 -1439 0
-36 -1440 0
-28 -1441 0
-29 -1442 0
-30 -1443 0
-31 -1444 0
-32 -1445 0
-33 -1446 0
-34 -1447 0
-35 -1448 0
-36 -1449 0
-28 -1450 0
-29 -1451 0
-30 -1452 0
-31 -1453 0
-32 -1454 0
-33 -1455 0
-34 -1456 0
-35 -1457 0
-36 -1458 0
-28 -1459 0
-29 -1460 0
-30 -1461 0
-31 -1462 0
-32 -1463 0
-33 -1464 0
-34 -1465 0
-35 -1466 0
-36 -1467 0
-28 -1468 0
-29 -1469 0
-30 -1470 0
-31 -1471 0
-32 -1472 0
-33 -1473 0
-34 -1474 0
-35 -1475 0
-36 -1476 0
-28 -1477 0
-29 -1478 0
-30 -1479 0
-31 -1480 0
-32 -1481 0
-33 -1482 0
-34 -1483 0
-35 -1484 0
-36 -1485 0
-28 -1486 0
-29 -1487 0
-30 -1488 0
-31 -1489 0
-32 -1490 0
-33 -1491 0
-34 -1492 0
-35 -1493 0
-36 -1494 0
-28 -1495 0
-29 -1496 0
-30 -1497 0
-31 -1498 0
-32 -1499 0
-33 -1500 0
-34 -1501 0
-35 -1502 0
-36 -1503 0
-28 -1504 0
-29 -1505 0
-30 -1506 0
-31 -1507 0
-32 -1508 0
-33 -1509 0
-34 -1510 0
-35 -1511 0
-36 -1512 0
-28 -1513 0
-29 -1514 0
-30 -1515 0
-31 -1516 0
-32 -1517 0
-33 -1518 0
-34 -1519 0
-35 -1520 0
-36 -1521 0
-28 -1522 0
-29 -1523 0
-30 -1524 0
-31 -1525 0
-32 -1526 0
-33 -1527 0
-34 -1528 0
-35 -1529 0
-36 -1530 0
-28 -1531 0
-29 -1532 0
-30 -1533 0
-31 -1534 0
-32 -1535 0
-33 -1536 0
-34 -1537 0
-35 -1538 0
-36 -1539 0
-28 -1540 0
-29 -1541 0
-30 -1542 0
-31 -1543 0
-32 -1544 0
-33 -1545 0
-34 -1546 0
-35 -1547 0
-36 -1548 0
-28 -1549 0
-29 -1550 0
-30 -1551 0
-31 -1552 0
-32 -1553 0
-33 -1554 0
-34 -1555 0
-35 -1556 0
-36 -1557 0
-28 -1558 0
-29 -1559 0
-30 -1560 0
-31 -1561 0
-32 -1562 0
-33 -1563 0
-34 -1564 0
-35 -1565 0
-36 -1566 0
-28 -1567 0
-29 -1568 0
-30 -1569 0
-31 -1570 0
-32 -1571 0
-33 -1572 0
-34 -1573 0
-35 -1574 0
-36 -1575 0
-28 -1576 0
-29 -1577 0
-30 -1578 0
-31 -1579 0
-32 -1580 0
-33 -1581 0
-34 -1582 0
-35 -1583 0
-36 -1584 0
-28 -1585 0
-29 -1586 0
-30 -1587 0
-31 -1588 0
-32 -1589 0
-33 -1590 0
-34 -1591 0
-35 -1592 0
-36 -1593 0
-37 -46 0
-38 -47 0
-39 -48 0
-40 -49 0
-41 -50 0
-42 -51 0
-43 -52 0
-44 -53 0
-45 -54 0
-37 -55 0
-38 -56 0
-39 -57 0
-40 -58 0
-41 -59 0
-42 -60 0
-43 -61 0
-44 -62 0
-45 -63 0
-37 -64 0
-38 -65 0
-39 -66 0
-40 -67 0
-41 -68 0
-42 -69 0
-43 -70 0
-44 -71 0
-45 -72 0
-37 -73 0
-38 -74 0
-39 -75 0
-40 -76 0
-41 -77 0
-42 -78 0
-43 -79 0
-44 -80 0
-45 -81 0
-37 -91 0
-38 -92 0
-39 -93 0
-40 -94 0
-41 -95 0
-42 -96 0
-43 -97 0
-44 -98 0
-45 -99 0
-37 -118 0
-38 -119 0
-39 -120 0
-40 -121 0
-41 -122 0
-42 -123 0
-43 -124 0
-44 -125 0
-45 -126 0
-37 -127 0
-38 -128 0
-39 -129 0
-40 -130 0
-41 -131 0
-42 -132 0
-43 -133 0
-44 -134 0
-45 -135 0
-37 -172 0
-38 -173 0
-39 -174 0
-40 -175 0
-41 -176 0
-42 -177 0
-43 -178 0
-44 -179 0
-45 -180 0
-37 -181 0
-38 -182 0
-39 -183 0
-40 -184 0
-41 -185 0
-42 -186 0
-43 -187 0
-44 -188 0
-45 -189 0
-37 -199 0
-38 -200 0
-39 -201 0
-40 -202 0
-41 -203 0
-42 -204 0
-43 -205 0
-44 -206 0
-45 -207 0
-37 -208 0
-38 -209 0
-39 -210 0
-40 -211 0
-41 -212 0
-42 -213 0
-43 -214 0
-44 -215 0
-45 -216 0
-37 -253 0
-38 -254 0
-39 -255 0
-40 -256 0
-41 -257 0
-42 -258 0
-43 -259 0
-44 -260 0
-45 -261 0
-37 -262 0
-38 -263 0
-39 -264 0
-40 -265 0
-41 -266 0
-42 -267 0
-43 -268 0
-44 -269 0
-45 -270 0
-37 -271 0
-38 -272 0
-39 -273 0
-40 -274 0
-41 -275 0
-42 -276 0
-43 -277 0
-44 -278 0
-45 -279 0
-37 -370 0
-38 -371 0
-39 -372 0
-40 -373 0
-41 -374 0
-42 -375 0
-43 -376 0
-44 -377 0
-45 -378 0
-37 -406 0
-38 -407 0
-39 -408 0
-40 -409 0
-41 -410 0
-42 -411 0
-43 -412 0
-44 -413 0
-45 -414 0
-37 -415 0
-38 -416 0
-39 -417 0
-40 -418 0
-41 -419 0
-42 -420 0
-43 -421 0
-44 -422 0
-45 -423 0
-37 -460 0
-38 -461 0
-39 -462 0
-40 -463 0
-41 -464 0
-42 -465 0
-43 -466 0
-44 -467 0
-45 -468 0
-37 -586 0
-38 -587 0
-39 -588 0
-40 -589 0
-41 -590 0
-42 -591 0
-43 -592 0
-44 -593 0
-45 -594 0
-37 -595 0
-38 -596 0
-39 -597 0
-40 -598 0
-41 -599 0
-42 -600 0
-43 -601 0
-44 -602 0
-45 -603 0
-37 -748 0
-38 -749 0
-39 -750 0
-40 -751 0
-41 -752 0
-42 -753 0
-43 -754 0
-44 -755 0
-45 -756 0
-37 -757 0
-38 -758 0
-39 -759 0
-40 -760 0
-41 -761 0
-42 -762 0
-43 -763 0
-44 -764 0
-45 -765 0
-37 -820 0
-38 -821 0
-39 -822 0
-40 -823 0
-41 -824 0
-42 -825 0
-43 -826 0
-44 -827 0
-45 -828 0
-37 -829 0
-38 -830 0
-39 -831 0
-40 -832 0
-41 -833 0
-42 -834 0
-43 -835 0
-44 -836 0
-45 -837 0
-37 -1018 0
-38 -1019 0
-39 -1020 0
-40 -1021 0
-41 -1022 0
-42 -1023 0
-43 -1024 0
-44 -1025 0
-45 -1026 0
-37 -1027 0
-38 -1028 0
-39 -1029 0
-40 -1030 0
-41 -1031 0
-42 -1032 0
-43 -1033 0
-44 -1034 0
-45 -1035 0
-37 -1054 0
-38 -1055 0
-39 -1056 0
-40 -1057 0
-41 -1058 0
-42 -1059 0
-43 -1060 0
-44 -1061 0
-45 -1062 0
-37 -1063 0
-38 -1064 0
-39 -1065 0
-40 -1066 0
-41 -1067 0
-42 -1068 0
-43 -1069 0
-44 -1070 0
-45 -1071 0
-37 -1072 0
-38 -1073 0
-39 -1074 0
-40 -1075 0
-41 -1076 0
-42 -1077 0
-43 -1078 0
-44 -1079 0
-45 -1080 0
-37 -1081 0
-38 -1082 0
-39 -1083 0
-40 -1084 0
-41 -1085 0
-42 -1086 0
-43 -1087 0
-44 -1088 0
-45 -1089 0
-37 -1108 0
-38 -1109 0
-39 -1110 0
-40 -1111 0
-41 -1112 0
-42 -1113 0
-43 -1114 0
-44 -1115 0
-45 -1116 0
-37 -1144 0
-38 -1145 0
-39 -1146 0
-40 -1147 0
-41 -1148 0
-42 -1149 0
-43 -1150 0
-44 -1151 0
-45 -1152 0
-37 -1153 0
-38 -1154 0
-39 -1155 0
-40 -1156 0
-41 -1157 0
-42 -1158 0
-43 -1159 0
-44 -1160 0
-45 -1161 0
-37 -1252 0
-38 -1253 0
-39 -1254 0
-40 -1255 0
-41 -1256 0
-42 -1257 0
-43 -1258 0
-44 -1259 0
-45 -1260 0
-37 -1279 0
-38 -1280 0
-39 -1281 0
-40 -1282 0
-41 -1283 0
-42 -1284 0
-43 -1285 0
-44 -1286 0
-45 -1287 0
-37 -1288 0
-38 -1289 0
-39 -1290 0
-40 -1291 0
-41 -1292 0
-42 -1293 0
-43 -1294 0
-44 -1295 0
-45 -1296 0
-37 -1297 0
-38 -1298 0
-39 -1299 0
-40 -1300 0
-41 -1301 0
-42 -1302 0
-43 -1303 0
-44 -1304 0
-45 -1305 0
-37 -1324 0
-38 -1325 0
-39 -1326 0
-40 -1327 0
-41 -1328 0
-42 -1329 0
-43 -1330 0
-44 -1331 0
-45 -1332 0
-37 -1360 0
-38 -1361 0
-39 -1362 0
-40 -1363 0
-41 -1364 0
-42 -1365 0
-43 -1366 0
-44 -1367 0
-45 -1368 0
-37 -1468 0
-38 -1469 0
-39 -1470 0
-40 -1471 0
-41 -1472 0
-42 -1473 0
-43 -1474 0
-44 -1475 0
-45 -1476 0
-37 -1477 0
-38 -1478 0
-39 -1479 0
-40 -1480 0
-41 -1481 0
-42 -1482 0
-43 -1483 0
-44 -1484 0
-45 -1485 0
-37 -1504 0
-38 -1505 0
-39 -1506 0
-40 -1507 0
-41 -1508 0
-42 -1509 0
-43 -1510 0
-44 -1511 0
-45 -1512 0
-37 -1513 0
-38 -1514 0
-39 -1515 0
-40 -1516 0
-41 -1517 0
-42 -1518 0
-43 -1519 0
-44 -1520 0
-45 -1521 0
-37 -1576 0
-38 -1577 0
-39 -1578 0
-40 -1579 0
-41 -1580 0
-42 -1581 0
-43 -1582 0
-44 -1583 0
-45 -1584 0
-37 -1585 0
-38 -1586 0
-39 -1587 0
-40 -1588 0
-41 -1589 0
-42 -1590 0
-43 -1591 0
-44 -1592 0
-45 -1593 0
-37 -1594 0
-38 -1595 0
-39 -1596 0
-40 -1597 0
-41 -1598 0
-42 -1599 0
-43 -1600 0
-44 -1601 0
-45 -1602 0
-37 -1603 0
-38 -1604 0
-39 -1605 0
-40 -1606 0
-41 -1607 0
-42 -1608 0
-43 -1609 0
-44 -1610 0
-45 -1611 0
-37 -1612 0
-38 -1613 0
-39 -1614 0
-40 -1615 0
-41 -1616 0
-42 -1617 0
-43 -1618 0
-44 -1619 0
-45 -1620 0
-37 -1621 0
-38 -1622 0
-39 -1623 0
-40 -1624 0
-41 -1625 0
-42 -1626 0
-43 -1627 0
-44 -1628 0
-45 -1629 0
-37 -1630 0
-38 -1631 0
-39 -1632 0
-40 -1633 0
-41 -1634 0
-42 -1635 0
-43 -1636 0
-44 -1637 0
-45 -1638 0
-37 -1639 0
-38 -1640 0
-39 -1641 0
-40 -1642 0
-41 -1643 0
-42 -1644 0
-43 -1645 0
-44 -1646 0
-45 -1647 0
-37 -1648 0
-38 -1649 0
-39 -1650 0
-40 -1651 0
-41 -1652 0
-42 -1653 0
-43 -1654 0
-44 -1655 0
-45 -1656 0
-37 -1657 0
-38 -1658 0
-39 -1659 0
-40 -1660 0
-41 -1661 0
-42 -1662 0
-43 -1663 0
-44 -1664 0
-45 -1665 0
-37 -1666 0
-38 -1667 0
-39 -1668 0
-40 -1669 0
-41 -1670 0
-42 -1671 0
-43 -1672 0
-44 -1673 0
-45 -1674 0
-37 -1675 0
-38 -1676 0
-39 -1677 0
-40 -1678 0
-41 -1679 0
-42 -1680 0
-43 -1681 0
-44 -1682 0
-45 -1683 0
-37 -1684 0
-38 -1685 0
-39 -1686 0
-40 -1687 0
-41 -1688 0
-42 -1689 0
-43 -1690 0
-44 -1691 0
-45 -1692 0
-37 -1693 0
-38 -1694 0
-39 -1695 0
-40 -1696 0
-41 -1697 0
-42 -1698 0
-43 -1699 0
-44 -1700 0
-45 -1701 0
-37 -1702 0
-38 -1703 0
-39 -1704 0
-40 -1705 0
-41 -1706 0
-42 -1707 0
-43 -1708 0
-44 -1709 0
-45 -1710 0
-37 -1711 0
-38 -1712 0
-39 -1713 0
-40 -1714 0
-41 -1715 0
-42 -1716 0
-43 -1717 0
-44 -1718 0
-45 -1719 0
-37 -1720 0
-38 -1721 0
-39 -1722 0
-40 -1723 0
-41 -1724 0
-42 -1725 0
-43 -1726 0
-44 -1727 0
-45 -1728 0
-37 -1729 0
-38 -1730 0
-39 -1731 0
-40 -1732 0
-41 -1733 0
-42 -1734 0
-43 -1735 0
-44 -1736 0
-45 -1737 0
-37 -1738 0
-38 -1739 0
-39 -1740 0
-40 -1741 0
-41 -1742 0
-42 -1743 0
-43 -1744 0
-44 -1745 0
-45 -1746 0
-37 -1747 0
-38 -1748 0
-39 -1749 0
-40 -1750 0
-41 -1751 0
-42 -1752 0
-43 -1753 0
-44 -1754 0
-45 -1755 0
-37 -1756 0
-38 -1757 0
-39 -1758 0
-40 -1759 0
-41 -1760 0
-42 -1761 0
-43 -1762 0
-44 -1763 0
-45 -1764 0
-37 -1765 0
-38 -1766 0
-39 -1767 0
-40 -1768 0
-41 -1769 0
-42 -1770 0
-43 -1771 0
-44 -1772 0
-45 -1773 0
-37 -1774 0
-38 -1775 0
-39 -1776 0
-40 -1777 0
-41 -1778 0
-42 -1779 0
-43 -1780 0
-44 -1781 0
-45 -1782 0
-37 -1783 0
-38 -1784 0
-39 -1785 0
-40 -1786 0
-41 -1787 0
-42 -1788 0
-43 -1789 0
-44 -1790 0
-45 -1791 0
-37 -1792 0
-38 -1793 0
-39 -1794 0
-40 -1795 0
-41 -1796 0
-42 -1797 0
-43 -1798 0
-44 -1799 0
-45 -1800 0
-37 -1801 0
-38 -1802 0
-39 -1803 0
-40 -1804 0
-41 -1805 0
-42 -1806 0
-43 -1807 0
-44 -1808 0
-45 -1809 0
-37 -1810 0
-38 -1811 0
-39 -1812 0
-40 -1813 0
-41 -1814 0
-42 -1815 0
-43 -1816 0
-44 -1817 0
-45 -1818 0
-37 -1819 0
-38 -1820 0
-39 -1821 0
-40 -1822 0
-41 -1823 0
-42 -1824 0
-43 -1825 0
-44 -1826 0
-45 -1827 0
-46 -55 0
-47 -56 0
-48 -57 0
-49 -58 0
-50 -59 0
-51 -60 0
-52 -61 0
-53 -62 0
-54 -63 0
-46 -64 0
-47 -65 0
-48 -66 0
-49 -67 0
-50 -68 0
-51 -69 0
-52 -70 0
-53 -71 0
-54 -72 0
-46 -82 0
-47 -83 0
-48 -84 0
-49 -85 0
-50 -86 0
-51 -87 0
-52 -88 0
-53 -89 0
-54 -90 0
-46 -100 0
-47 -101 0
-48 -102 0
-49 -103 0
-50 -104 0
-51 -105 0
-52 -106 0
-53 -107 0
-54 -108 0
-46 -118 0
-47 -119 0
-48 -120 0
-49 -121 0
-50 -122 0
-51 -123 0
-52 -124 0
-53 -125 0
-54 -126 0
-46 -136 0
-47 -137 0
-48 -138 0
-49 -139 0
-50 -140 0
-51 -141 0
-52 -142 0
-53 -143 0
-54 -144 0
-46 -190 0
-47 -191 0
-48 -192 0
-49 -193 0
-50 -194 0
-51 -195 0
-52 -196 0
-53 -197 0
-54 -198 0
-46 -199 0
-47 -200 0
-48 -201 0
-49 -202 0
-50 -203 0
-51 -204 0
-52 -205 0
-53 -206 0
-54 -207 0
-46 -226 0
-47 -227 0
-48 -228 0
-49 -229 0
-50 -230 0
-51 -231 0
-52 -232 0
-53 -233 0
-54 -234 0
-46 -235 0
-47 -236 0
-48 -237 0
-49 -238 0
-50 -239 0
-51 -240 0
-52 -241 0
-53 -242 0
-54 -243 0
-46 -280 0
-47 -281 0
-48 -282 0
-49 -283 0
-50 -284 0
-51 -285 0
-52 -286 0
-53 -287 0
-54 -288 0
-46 -289 0
-47 -290 0
-48 -291 0
-49 -292 0
-50 -293 0
-51 -294 0
-52 -295 0
-53 -296 0
-54 -297 0
-46 -334 0
-47 -335 0
-48 -336 0
-49 -337 0
-50 -338 0
-51 -339 0
-52 -340 0
-53 -341 0
-54 -342 0
-46 -379 0
-47 -380 0
-48 -381 0
-49 -382 0
-50 -383 0
-51 -384 0
-52 -385 0
-53 -386 0
-54 -387 0
-46 -406 0
-47 -407 0
-48 -408 0
-49 -409 0
-50 -410 0
-51 -411 0
-52 -412 0
-53 -413 0
-54 -414 0
-46 -442 0
-47 -443 0
-48 -444 0
-49 -445 0
-50 -446 0
-51 -447 0
-52 -448 0
-53 -449 0
-54 -450 0
-46 -460 0
-47 -461 0
-48 -462 0
-49 -463 0
-50 -464 0
-51 -465 0
-52 -466 0
-53 -467 0
-54 -468 0
-46 -586 0
-47 -587 0
-48 -588 0
-49 -589 0
-50 -590 0
-51 -591 0
-52 -592 0
-53 -593 0
-54 -594 0
-46 -604 0
-47 -605 0
-48 -606 0
-49 -607 0
-50 -608 0
-51 -609 0
-52 -610 0
-53 -611 0
-54 -612 0
-46 -730 0
-47 -731 0
-48 -732 0
-49 -733 0
-50 -734 0
-51 -735 0
-52 -736 0
-53 -737 0
-54 -738 0
-46 -784 0
-47 -785 0
-48 -786 0
-49 -787 0
-50 -788 0
-51 -789 0
-52 -790 0
-53 -791 0
-54 -792 0
-46 -802 0
-47 -803 0
-48 -804 0
-49 -805 0
-50 -806 0
-51 -807 0
-52 -808 0
-53 -809 0
-54 -810 0
-46 -865 0
-47 -866 0
-48 -867 0
-49 -868 0
-50 -869 0
-51 -870 0
-52 -871 0
-53 -872 0
-54 -873 0
-46 -1018 0
-47 -1019 0
-48 -1020 0
-49 -1021 0
-50 -1022 0
-51 -1023 0
-52 -1024 0
-53 -1025 0
-54 -1026 0
-46 -1036 0
-47 -1037 0
-48 -1038 0
-49 -1039 0
-50 -1040 0
-51 -1041 0
-52 -1042 0
-53 -1043 0
-54 -1044 0
-46 -1045 0
-47 -1046 0
-48 -1047 0
-49 -1048 0
-50 -1049 0
-51 -1050 0
-52 -1051 0
-53 -1052 0
-54 -1053 0
-46 -1063 0
-47 -1064 0
-48 -1065 0
-49 -1066 0
-50 -1067 0
-51 -1068 0
-52 -1069 0
-53 -1070 0
-54 -1071 0
-46 -1072 0
-47 -1073 0
-48 -1074 0
-49 -1075 0
-50 -1076 0
-51 -1077 0
-52 -1078 0
-53 -1079 0
-54 -1080 0
-46 -1099 0
-47 -1100 0
-48 -1101 0
-49 -1102 0
-50 -1103 0
-51 -1104 0
-52 -1105 0
-53 -1106 0
-54 -1107 0
-46 -1126 0
-47 -1127 0
-48 -1128 0
-49 -1129 0
-50 -1130 0
-51 -1131 0
-52 -1132 0
-53 -1133 0
-54 -1134 0
-46 -1144 0
-47 -1145 0
-48 -1146 0
-49 -1147 0
-50 -1148 0
-51 -1149 0
-52 -1150 0
-53 -1151 0
-54 -1152 0
-46 -1162 0
-47 -1163 0
-48 -1164 0
-49 -1165 0
-50 -1166 0
-51 -1167 0
-52 -1168 0
-53 -1169 0
-54 -1170 0
-46 -1306 0
-47 -1307 0
-48 -1308 0
-49 -1309 0
-50 -1310 0
-51 -1311 0
-52 -1312 0
-53 -1313 0
-54 -1314 0
-46 -1333 0
-47 -1334 0
-48 -1335 0
-49 -1336 0
-50 -1337 0
-51 -1338 0
-52 -1339 0
-53 -1340 0
-54 -1341 0
-46 -1351 0
-47 -1352 0
-48 -1353 0
-49 -1354 0
-50 -1355 0
-51 -1356 0
-52 -1357 0
-53 -1358 0
-54 -1359 0
-46 -1378 0
-47 -1379 0
-48 -1380 0
-49 -1381 0
-50 -1382 0
-51 -1383 0
-52 -1384 0
-53 -1385 0
-54 -1386 0
-46 -1405 0
-47 -1406 0
-48 -1407 0
-49 -1408 0
-50 -1409 0
-51 -1410 0
-52 -1411 0
-53 -1412 0
-54 -1413 0
-46 -1414 0
-47 -1415 0
-48 -1416 0
-49 -1417 0
-50 -1418 0
-51 -1419 0
-52 -1420 0
-53 -1421 0
-54 -1422 0
-46 -1441 0
-47 -1442 0
-48 -1443 0
-49 -1444 0
-50 -1445 0
-51 -1446 0
-52 -1447 0
-53 -1448 0
-54 -1449 0
-46 -1450 0
-47 -1451 0
-48 -1452 0
-49 -1453 0
-50 -1454 0
-51 -1455 0
-52 -1456 0
-53 -1457 0
-54 -1458 0
-46 -1459 0
-47 -1460 0
-48 -1461 0
-49 -1462 0
-50 -1463 0
-51 -1464 0
-52 -1465 0
-53 -1466 0
-54 -1467 0
-46 -1495 0
-47 -1496 0
-48 -1497 0
-49 -1498 0
-50 -1499 0
-51 -1500 0
-52 -1501 0
-53 -1502 0
-54 -1503 0
-46 -1522 0
-47 -1523 0
-48 -1524 0
-49 -1525 0
-50 -1526 0
-51 -1527 0
-52 -1528 0
-53 -1529 0
-54 -1530 0
-46 -1540 0
-47 -1541 0
-48 -1542 0
-49 -1543 0
-50 -1544 0
-51 -1545 0
-52 -1546 0
-53 -1547 0
-54 -1548 0
-46 -1594 0
-47 -1595 0
-48 -1596 0
-49 -1597 0
-50 -1598 0
-51 -1599 0
-52 -1600 0
-53 -1601 0
-54 -1602 0
-46 -1711 0
-47 -1712 0
-48 -1713 0
-49 -1714 0
-50 -1715 0
-51 -1716 0
-52 -1717 0
-53 -1718 0
-54 -1719 0
-46 -1828 0
-47 -1829 0
-48 -1830 0
-49 -1831 0
-50 -1832 0
-51 -1833 0
-52 -1834 0
-53 -1835 0
-54 -1836 0
-46 -1837 0
-47 -1838 0
-48 -1839 0
-49 -1840 0
-50 -1841 0
-51 -1842 0
-52 -1843 0
-53 -1844 0
-54 -1845 0
-46 -1846 0
-47 -1847 0
-48 -1848 0
-49 -1849 0
-50 -1850 0
-51 -1851 0
-52 -1852 0
-53 -1853 0
-54 -1854 0
-46 -1855 0
-47 -1856 0
-48 -1857 0
-49 -1858 0
-50 -1859 0
-51 -1860 0
-52 -1861 0
-53 -1862 0
-54 -1863 0
-46 -1864 0
-47 -1865 0
-48 -1866 0
-49 -1867 0
-50 -1868 0
-51 -1869 0
-52 -1870 0
-53 -1871 0
-54 -1872 0
-46 -1873 0
-47 -1874 0
-48 -1875 0
-49 -1876 0
-50 -1877 0
-51 -1878 0
-52 -1879 0
-53 -1880 0
-54 -1881 0
-46 -1882 0
-47 -1883 0
-48 -1884 0
-49 -1885 0
-50 -1886 0
-51 -1887 0
-52 -1888 0
-53 -1889 0
-54 -1890 0
-46 -1891 0
-47 -1892 0
-48 -1893 0
-49 -1894 0
-50 -1895 0
-51 -1896 0
-52 -1897 0
-53 -1898 0
-54 -1899 0
-46 -1900 0
-47 -1901 0
-48 -1902 0
-49 -1903 0
-50 -1904 0
-51 -1905 0
-52 -1906 0
-53 -1907 0
-54 -1908 0
-46 -1909 0
-47 -1910 0
-48 -1911 0
-49 -1912 0
-50 -1913 0
-51 -1914 0
-52 -1915 0
-53 -1916 0
-54 -1917 0
-46 -1918 0
-47 -1919 0
-48 -1920 0
-49 -1921 0
-50 -1922 0
-51 -1923 0
-52 -1924 0
-53 -1925 0
-54 -1926 0
-46 -1927 0
-47 -1928 0
-48 -1929 0
-49 -1930 0
-50 -1931 0
-51 -1932 0
-52 -1933 0
-53 -1934 0
-54 -1935 0
-46 -1936 0
-47 -1937 0
-48 -1938 0
-49 -1939 0
-50 -1940 0
-51 -1941 0
-52 -1942 0
-53 -1943 0
-54 -1944 0
-46 -1945 0
-47 -1946 0
-48 -1947 0
-49 -1948 0
-50 -1949 0
-51 -1950 0
-52 -1951 0
-53 -1952 0
-54 -1953 0
-46 -1954 0
-47 -1955 0
-48 -1956 0
-49 -1957 0
-50 -1958 0
-51 -1959 0
-52 -1960 0
-53 -1961 0
-54 -1962 0
-46 -1963 0
-47 -1964 0
-48 -1965 0
-49 -1966 0
-50 -1967 0
-51 -1968 0
-52 -1969 0
-53 -1970 0
-54 -1971 0
-46 -1972 0
-47 -1973 0
-48 -1974 0
-49 -1975 0
-50 -1976 0
-51 -1977 0
-52 -1978 0
-53 -1979 0
-54 -1980 0
-46 -1981 0
-47 -1982 0
-48 -1983 0
-49 -1984 0
-50 -1985 0
-51 -1986 0
-52 -1987 0
-53 -1988 0
-54 -1989 0
-46 -1990 0
-47 -1991 0
-48 -1992 0
-49 -1993 0
-50 -1994 0
-51 -1995 0
-52 -1996 0
-53 -1997 0
-54 -1998 0
-46 -1999 0
-47 -2000 0
-48 -2001 0
-49 -2002 0
-50 -2003 0
-51 -2004 0
-52 -2005 0
-53 -2006 0
-54 -2007 0
-46 -2008 0
-47 -2009 0
-48 -2010 0
-49 -2011 0
-50 -2012 0
-51 -2013 0
-52 -2014 0
-53 -2015 0
-54 -2016 0
-46 -2017 0
-47 -2018 0
-48 -2019 0
-49 -2020 0
-50 -2021 0
-51 -2022 0
-52 -2023 0
-53 -2024 0
-54 -2025 0
-46 -2026 0
-47 -2027 0
-48 -2028 0
-49 -2029 0
-50 -2030 0
-51 -2031 0
-52 -2032 0
-53 -2033 0
-54 -2034 0
-46 -2035 0
-47 -2036 0
-48 -2037 0
-49 -2038 0
-50 -2039 0
-51 -2040 0
-52 -2041 0
-53 -2042 0
-54 -2043 0
-55 -73 0
-56 -74 0
-57 -75 0
-58 -76 0
-59 -77 0
-60 -78 0
-61 -79 0
-62 -80 0
-63 -81 0
-55 -82 0
-56 -83 0
-57 -84 0
-58 -85 0
-59 -86 0
-60 -87 0
-61 -88 0
-62 -89 0
-63 -90 0
-55 -109 0
-56 -110 0
-57 -111 0
-58 -112 0
-59 -113 0
-60 -114 0
-61 -115 0
-62 -116 0
-63 -117 0
-55 -127 0
-56 -128 0
-57 -129 0
-58 -130 0
-59 -131 0
-60 -132 0
-61 -133 0
-62 -134 0
-63 -135 0
-55 -136 0
-56 -137 0
-57 -138 0
-58 -139 0
-59 -140 0
-60 -141 0
-61 -142 0
-62 -143 0
-63 -144 0
-55 -208 0
-56 -209 0
-57 -210 0
-58 -211 0
-59 -212 0
-60 -213 0
-61 -214 0
-62 -215 0
-63 -216 0
-55 -217 0
-56 -218 0
-57 -219 0
-58 -220 0
-59 -221 0
-60 -222 0
-61 -223 0
-62 -224 0
-63 -225 0
-55 -226 0
-56 -227 0
-57 -228 0
-58 -229 0
-59 -230 0
-60 -231 0
-61 -232 0
-62 -233 0
-63 -234 0
-55 -244 0
-56 -245 0
-57 -246 0
-58 -247 0
-59 -248 0
-60 -249 0
-61 -250 0
-62 -251 0
-63 -252 0
-55 -298 0
-56 -299 0
-57 -300 0
-58 -301 0
-59 -302 0
-60 -303 0
-61 -304 0
-62 -305 0
-63 -306 0
-55 -316 0
-56 -317 0
-57 -318 0
-58 -319 0
-59 -320 0
-60 -321 0
-61 -322 0
-62 -323 0
-63 -324 0
-55 -343 0
-56 -344 0
-57 -345 0
-58 -346 0
-59 -347 0
-60 -348 0
-61 -349 0
-62 -350 0
-63 -351 0
-55 -388 0
-56 -389 0
-57 -390 0
-58 -391 0
-59 -392 0
-60 -393 0
-61 -394 0
-62 -395 0
-63 -396 0
-55 -415 0
-56 -416 0
-57 -417 0
-58 -418 0
-59 -419 0
-60 -420 0
-61 -421 0
-62 -422 0
-63 -423 0
-55 -442 0
-56 -443 0
-57 -444 0
-58 -445 0
-59 -446 0
-60 -447 0
-61 -448 0
-62 -449 0
-63 -450 0
-55 -460 0
-56 -461 0
-57 -462 0
-58 -463 0
-59 -464 0
-60 -465 0
-61 -466 0
-62 -467 0
-63 -468 0
-55 -595 0
-56 -596 0
-57 -597 0
-58 -598 0
-59 -599 0
-60 -600 0
-61 -601 0
-62 -602 0
-63 -603 0
-55 -604 0
-56 -605 0
-57 -606 0
-58 -607 0
-59 -608 0
-60 -609 0
-61 -610 0
-62 -611 0
-63 -612 0
-55 -739 0
-56 -740 0
-57 -741 0
-58 -742 0
-59 -743 0
-60 -744 0
-61 -745 0
-62 -746 0
-63 -747 0
-55 -775 0
-56 -776 0
-57 -777 0
-58 -778 0
-59 -779 0
-60 -780 0
-61 -781 0
-62 -782 0
-63 -783 0
-55 -811 0
-56 -812 0
-57 -813 0
-58 -814 0
-59 -815 0
-60 -816 0
-61 -817 0
-62 -818 0
-63 -819 0
-55 -856 0
-56 -857 0
-57 -858 0
-58 -859 0
-59 -860 0
-60 -861 0
-61 -862 0
-62 -863 0
-63 -864 0
-55 -1090 0
-56 -1091 0
-57 -1092 0
-58 -1093 0
-59 -1094 0
-60 -1095 0
-61 -1096 0
-62 -1097 0
-63 -1098 0
-55 -1117 0
-56 -1118 0
-57 -1119 0
-58 -1120 0
-59 -1121 0
-60 -1122 0
-61 -1123 0
-62 -1124 0
-63 -1125 0
-55 -1135 0
-56 -1136 0
-57 -1137 0
-58 -1138 0
-59 -1139 0
-60 -1140 0
-61 -1141 0
-62 -1142 0
-63 -1143 0
-55 -1144 0
-56 -1145 0
-57 -1146 0
-58 -1147 0
-59 -1148 0
-60 -1149 0
-61 -1150 0
-62 -1151 0
-63 -1152 0
-55 -1171 0
-56 -1172 0
-57 -1173 0
-58 -1174 0
-59 -1175 0
-60 -1176 0
-61 -1177 0
-62 -1178 0
-63 -1179 0
-55 -1198 0
-56 -1199 0
-57 -1200 0
-58 -1201 0
-59 -1202 0
-60 -1203 0
-61 -1204 0
-62 -1205 0
-63 -1206 0
-55 -1207 0
-56 -1208 0
-57 -1209 0
-58 -1210 0
-59 -1211 0
-60 -1212 0
-61 -1213 0
-62 -1214 0
-63 -1215 0
-55 -1252 0
-56 -1253 0
-57 -1254 0
-58 -1255 0
-59 -1256 0
-60 -1257 0
-61 -1258 0
-62 -1259 0
-63 -1260 0
-55 -1261 0
-56 -1262 0
-57 -1263 0
-58 -1264 0
-59 -1265 0
-60 -1266 0
-61 -1267 0
-62 -1268 0
-63 -1269 0
-55 -1270 0
-56 -1271 0
-57 -1272 0
-58 -1273 0
-59 -1274 0
-60 -1275 0
-61 -1276 0
-62 -1277 0
-63 -1278 0
-55 -1279 0
-56 -1280 0
-57 -1281 0
-58 -1282 0
-59 -1283 0
-60 -1284 0
-61 -1285 0
-62 -1286 0
-63 -1287 0
-55 -1288 0
-56 -1289 0
-57 -1290 0
-58 -1291 0
-59 -1292 0
-60 -1293 0
-61 -1294 0
-62 -1295 0
-63 -1296 0
-55 -1315 0
-56 -1316 0
-57 -1317 0
-58 -1318 0
-59 -1319 0
-60 -1320 0
-61 -1321 0
-62 -1322 0
-63 -1323 0
-55 -1342 0
-56 -1343 0
-57 -1344 0
-58 -1345 0
-59 -1346 0
-60 -1347 0
-61 -1348 0
-62 -1349 0
-63 -1350 0
-55 -1369 0
-56 -1370 0
-57 -1371 0
-58 -1372 0
-59 -1373 0
-60 -1374 0
-61 -1375 0
-62 -1376 0
-63 -1377 0
-55 -1441 0
-56 -1442 0
-57 -1443 0
-58 -1444 0
-59 -1445 0
-60 -1446 0
-61 -1447 0
-62 -1448 0
-63 -1449 0
-55 -1450 0
-56 -1451 0
-57 -1452 0
-58 -1453 0
-59 -1454 0
-60 -1455 0
-61 -1456 0
-62 -1457 0
-63 -1458 0
-55 -1459 0
-56 -1460 0
-57 -1461 0
-58 -1462 0
-59 -1463 0
-60 -1464 0
-61 -1465 0
-62 -1466 0
-63 -1467 0
-55 -1486 0
-56 -1487 0
-57 -1488 0
-58 -1489 0
-59 -1490 0
-60 -1491 0
-61 -1492 0
-62 -1493 0
-63 -1494 0
-55 -1531 0
-56 -1532 0
-57 -1533 0
-58 -1534 0
-59 -1535 0
-60 -1536 0
-61 -1537 0
-62 -1538 0
-63 -1539 0
-55 -1549 0
-56 -1550 0
-57 -1551 0
-58 -1552 0
-59 -1553 0
-60 -1554 0
-61 -1555 0
-62 -1556 0
-63 -1557 0
-55 -1594 0
-56 -1595 0
-57 -1596 0
-58 -1597 0
-59 -1598 0
-60 -1599 0
-61 -1600 0
-62 -1601 0
-63 -1602 0
-55 -1720 0
-56 -1721 0
-57 -1722 0
-58 -1723 0
-59 -1724 0
-60 -1725 0
-61 -1726 0
-62 -1727 0
-63 -1728 0
-55 -1936 0
-56 -1937 0
-57 -1938 0
-58 -1939 0
-59 -1940 0
-60 -1941 0
-61 -1942 0
-62 -1943 0
-63 -1944 0
-55 -2044 0
-56 -2045 0
-57 -2046 0
-58 -2047 0
-59 -2048 0
-60 -2049 0
-61 -2050 0
-62 -2051 0
-63 -2052 0
-55 -2053 0
-56 -2054 0
-57 -2055 0
-58 -2056 0
-59 -2057 0
-60 -2058 0
-61 -2059 0
-62 -2060 0
-63 -2061 0
-55 -2062 0
-56 -2063 0
-57 -2064 0
-58 -2065 0
-59 -2066 0
-60 -2067 0
-61 -2068 0
-62 -2069 0
-63 -2070 0
-55 -2071 0
-56 -2072 0
-57 -2073 0
-58 -2074 0
-59 -2075 0
-60 -2076 0
-61 -2077 0
-62 -2078 0
-63 -2079 0
-55 -2080 0
-56 -2081 0
-57 -2082 0
-58 -2083 0
-59 -2084 0
-60 -2085 0
-61 -2086 0
-62 -2087 0
-63 -2088 0
-55 -2089 0
-56 -2090 0
-57 -2091 0
-58 -2092 0
-59 -2093 0
-60 -2094 0
-61 -2095 0
-62 -2096 0
-63 -2097 0
-55 -2098 0
-56 -2099 0
-57 -2100 0
-58 -2101 0
-59 -2102 0
-60 -2103 0
-61 -2104 0
-62 -2105 0
-63 -2106 0
-55 -2107 0
-56 -2108 0
-57 -2109 0
-58 -2110 0
-59 -2111 0
-60 -2112 0
-61 -2113 0
-62 -2114 0
-63 -2115 0
-55 -2116 0
-56 -2117 0
-57 -2118 0
-58 -2119 0
-59 -2120 0
-60 -2121 0
-61 -2122 0
-62 -2123 0
-63 -2124 0
-55 -2125 0
-56 -2126 0
-57 -2127 0
-58 -2128 0
-59 -2129 0
-60 -2130 0
-61 -2131 0
-62 -2132 0
-63 -2133 0
-55 -2134 0
-56 -2135 0
-57 -2136 0
-58 -2137 0
-59 -2138 0
-60 -2139 0
-61 -2140 0
-62 -2141 0
-63 -2142 0
-55 -2143 0
-56 -2144 0
-57 -2145 0
-58 -2146 0
-59 -2147 0
-60 -2148 0
-61 -2149 0
-62 -2150 0
-63 -2151 0
-55 -2152 0
-56 -2153 0
-57 -2154 0
-58 -2155 0
-59 -2156 0
-60 -2157 0
-61 -2158 0
-62 -2159 0
-63 -2160 0
-55 -2161 0
-56 -2162 0
-57 -2163 0
-58 -2164 0
-59 -2165 0
-60 -2166 0
-61 -2167 0
-62 -2168 0
-63 -2169 0
-55 -2170 0
-56 -2171 0
-57 -2172 0
-58 -2173 0
-59 -2174 0
-60 -2175 0
-61 -2176 0
-62 -2177 0
-63 -2178 0
-55 -2179 0
-56 -2180 0
-57 -2181 0
-58 -2182 0
-59 -2183 0
-60 -2184 0
-61 -2185 0
-62 -2186 0
-63 -2187 0
-55 -2188 0
-56 -2189 0
-57 -2190 0
-58 -2191 0
-59 -2192 0
-60 -2193 0
-61 -2194 0
-62 -2195 0
-63 -2196 0
-55 -2197 0
-56 -2198 0
-57 -2199 0
-58 -2200 0
-59 -2201 0
-60 -2202 0
-61 -2203 0
-62 -2204 0
-63 -2205 0
-55 -2206 0
-56 -2207 0
-57 -2208 0
-58 -2209 0
-59 -2210 0
-60 -2211 0
-61 -2212 0
-62 -2213 0
-63 -2214 0
-55 -2215 0
-56 -2216 0
-57 -2217 0
-58 -2218 0
-59 -2219 0
-60 -2220 0
-61 -2221 0
-62 -2222 0
-63 -2223 0
-55 -2224 0
-56 -2225 0
-57 -2226 0
-58 -2227 0
-59 -2228 0
-60 -2229 0
-61 -2230 0
-62 -2231 0
-63 -2232 0
-55 -2233 0
-56 -2234 0
-57 -2235 0
-58 -2236 0
-59 -2237 0
-60 -2238 0
-61 -2239 0
-62 -2240 0
-63 -2241 0
-55 -2242 0
-56 -2243 0
-57 -2244 0
-58 -2245 0
-59 -2246 0
-60 -2247 0
-61 -2248 0
-62 -2249 0
-63 -2250 0
-64 -109 0
-65 -110 0
-66 -111 0
-67 -112 0
-68 -113 0
-69 -114 0
-70 -115 0
-71 -116 0
-72 -117 0
-64 -118 0
-65 -119 0
-66 -120 0
-67 -121 0
-68 -122 0
-69 -123 0
-70 -124 0
-71 -125 0
-72 -126 0
-64 -145 0
-65 -146 0
-66 -147 0
-67 -148 0
-68 -149 0
-69 -150 0
-70 -151 0
-71 -152 0
-72 -153 0
-64 -154 0
-65 -155 0
-66 -156 0
-67 -157 0
-68 -158 0
-69 -159 0
-70 -160 0
-71 -161 0
-72 -162 0
-64 -172 0
-65 -173 0
-66 -174 0
-67 -175 0
-68 -176 0
-69 -177 0
-70 -178 0
-71 -179 0
-72 -180 0
-64 -190 0
-65 -191 0
-66 -192 0
-67 -193 0
-68 -194 0
-69 -195 0
-70 -196 0
-71 -197 0
-72 -198 0
-64 -208 0
-65 -209 0
-66 -210 0
-67 -211 0
-68 -212 0
-69 -213 0
-70 -214 0
-71 -215 0
-72 -216 0
-64 -226 0
-65 -227 0
-66 -228 0
-67 -229 0
-68 -230 0
-69 -231 0
-70 -232 0
-71 -233 0
-72 -234 0
-64 -253 0
-65 -254 0
-66 -255 0
-67 -256 0
-68 -257 0
-69 -258 0
-70 -259 0
-71 -260 0
-72 -261 0
-64 -262 0
-65 -263 0
-66 -264 0
-67 -265 0
-68 -266 0
-69 -267 0
-70 -268 0
-71 -269 0
-72 -270 0
-64 -280 0
-65 -281 0
-66 -282 0
-67 -283 0
-68 -284 0
-69 -285 0
-70 -286 0
-71 -287 0
-72 -288 0
-64 -289 0
-65 -290 0
-66 -291 0
-67 -292 0
-68 -293 0
-69 -294 0
-70 -295 0
-71 -296 0
-72 -297 0
-64 -397 0
-65 -398 0
-66 -399 0
-67 -400 0
-68 -401 0
-69 -402 0
-70 -403 0
-71 -404 0
-72 -405 0
-64 -406 0
-65 -407 0
-66 -408 0
-67 -409 0
-68 -410 0
-69 -411 0
-70 -412 0
-71 -413 0
-72 -414 0
-64 -424 0
-65 -425 0
-66 -426 0
-67 -427 0
-68 -428 0
-69 -429 0
-70 -430 0
-71 -431 0
-72 -432 0
-64 -478 0
-65 -479 0
-66 -480 0
-67 -481 0
-68 -482 0
-69 -483 0
-70 -484 0
-71 -485 0
-72 -486 0
-64 -505 0
-65 -506 0
-66 -507 0
-67 -508 0
-68 -509 0
-69 -510 0
-70 -511 0
-71 -512 0
-72 -513 0
-64 -730 0
-65 -731 0
-66 -732 0
-67 -733 0
-68 -734 0
-69 -735 0
-70 -736 0
-71 -737 0
-72 -738 0
-64 -748 0
-65 -749 0
-66 -750 0
-67 -751 0
-68 -752 0
-69 -753 0
-70 -754 0
-71 -755 0
-72 -756 0
-64 -847 0
-65 -848 0
-66 -849 0
-67 -850 0
-68 -851 0
-69 -852 0
-70 -853 0
-71 -854 0
-72 -855 0
-64 -892 0
-65 -893 0
-66 -894 0
-67 -895 0
-68 -896 0
-69 -897 0
-70 -898 0
-71 -899 0
-72 -900 0
-64 -1009 0
-65 -1010 0
-66 -1011 0
-67 -1012 0
-68 -1013 0
-69 -1014 0
-70 -1015 0
-71 -1016 0
-72 -1017 0
-64 -1108 0
-65 -1109 0
-66 -1110 0
-67 -1111 0
-68 -1112 0
-69 -1113 0
-70 -1114 0
-71 -1115 0
-72 -1116 0
-64 -1162 0
-65 -1163 0
-66 -1164 0
-67 -1165 0
-68 -1166 0
-69 -1167 0
-70 -1168 0
-71 -1169 0
-72 -1170 0
-64 -1252 0
-65 -1253 0
-66 -1254 0
-67 -1255 0
-68 -1256 0
-69 -1257 0
-70 -1258 0
-71 -1259 0
-72 -1260 0
-64 -1306 0
-65 -1307 0
-66 -1308 0
-67 -1309 0
-68 -1310 0
-69 -1311 0
-70 -1312 0
-71 -1313 0
-72 -1314 0
-64 -1315 0
-65 -1316 0
-66 -1317 0
-67 -1318 0
-68 -1319 0
-69 -1320 0
-70 -1321 0
-71 -1322 0
-72 -1323 0
-64 -1351 0
-65 -1352 0
-66 -1353 0
-67 -1354 0
-68 -1355 0
-69 -1356 0
-70 -1357 0
-71 -1358 0
-72 -1359 0
-64 -1405 0
-65 -1406 0
-66 -1407 0
-67 -1408 0
-68 -1409 0
-69 -1410 0
-70 -1411 0
-71 -1412 0
-72 -1413 0
-64 -1441 0
-65 -1442 0
-66 -1443 0
-67 -1444 0
-68 -1445 0
-69 -1446 0
-70 -1447 0
-71 -1448 0
-72 -1449 0
-64 -1468 0
-65 -1469 0
-66 -1470 0
-67 -1471 0
-68 -1472 0
-69 -1473 0
-70 -1474 0
-71 -1475 0
-72 -1476 0
-64 -1504 0
-65 -1505 0
-66 -1506 0
-67 -1507 0
-68 -1508 0
-69 -1509 0
-70 -1510 0
-71 -1511 0
-72 -1512 0
-64 -1531 0
-65 -1532 0
-66 -1533 0
-67 -1534 0
-68 -1535 0
-69 -1536 0
-70 -1537 0
-71 -1538 0
-72 -1539 0
-64 -1576 0
-65 -1577 0
-66 -1578 0
-67 -1579 0
-68 -1580 0
-69 -1581 0
-70 -1582 0
-71 -1583 0
-72 -1584 0
-64 -1594 0
-65 -1595 0
-66 -1596 0
-67 -1597 0
-68 -1598 0
-69 -1599 0
-70 -1600 0
-71 -1601 0
-72 -1602 0
-64 -1630 0
-65 -1631 0
-66 -1632 0
-67 -1633 0
-68 -1634 0
-69 -1635 0
-70 -1636 0
-71 -1637 0
-72 -1638 0
-64 -1711 0
-65 -1712 0
-66 -1713 0
-67 -1714 0
-68 -1715 0
-69 -1716 0
-70 -1717 0
-71 -1718 0
-72 -1719 0
-64 -1774 0
-65 -1775 0
-66 -1776 0
-67 -1777 0
-68 -1778 0
-69 -1779 0
-70 -1780 0
-71 -1781 0
-72 -1782 0
-64 -1855 0
-65 -1856 0
-66 -1857 0
-67 -1858 0
-68 -1859 0
-69 -1860 0
-70 -1861 0
-71 -1862 0
-72 -1863 0
-64 -1972 0
-65 -1973 0
-66 -1974 0
-67 -1975 0
-68 -1976 0
-69 -1977 0
-70 -1978 0
-71 -1979 0
-72 -1980 0
-64 -2044 0
-65 -2045 0
-66 -2046 0
-67 -2047 0
-68 -2048 0
-69 -2049 0
-70 -2050 0
-71 -2051 0
-72 -2052 0
-64 -2053 0
-65 -2054 0
-66 -2055 0
-67 -2056 0
-68 -2057 0
-69 -2058 0
-70 -2059 0
-71 -2060 0
-72 -2061 0
-64 -2089 0
-65 -2090 0
-66 -2091 0
-67 -2092 0
-68 -2093 0
-69 -2094 0
-70 -2095 0
-71 -2096 0
-72 -2097 0
-64 -2107 0
-65 -2108 0
-66 -2109 0
-67 -2110 0
-68 -2111 0
-69 -2112 0
-70 -2113 0
-71 -2114 0
-72 -2115 0
-64 -2251 0
-65 -2252 0
-66 -2253 0
-67 -2254 0
-68 -2255 0
-69 -2256 0
-70 -2257 0
-71 -2258 0
-72 -2259 0
-64 -2260 0
-65 -2261 0
-66 -2262 0
-67 -2263 0
-68 -2264 0
-69 -2265 0
-70 -2266 0
-71 -2267 0
-72 -2268 0
-64 -2269 0
-65 -2270 0
-66 -2271 0
-67 -2272 0
-68 -2273 0
-69 -2274 0
-70 -2275 0
-71 -2276 0
-72 -2277 0
-64 -2278 0
-65 -2279 0
-66 -2280 0
-67 -2281 0
-68 -2282 0
-69 -2283 0
-70 -2284 0
-71 -2285 0
-72 -2286 0
-64 -2287 0
-65 -2288 0
-66 -2289 0
-67 -2290 0
-68 -2291 0
-69 -2292 0
-70 -2293 0
-71 -2294 0
-72 -2295 0
-64 -2296 0
-65 -2297 0
-66 -2298 0
-67 -2299 0
-68 -2300 0
-69 -2301 0
-70 -2302 0
-71 -2303 0
-72 -2304 0
-64 -2305 0
-65 -2306 0
-66 -2307 0
-67 -2308 0
-68 -2309 0
-69 -2310 0
-70 -2311 0
-71 -2312 0
-72 -2313 0
-64 -2314 0
-65 -2315 0
-66 -2316 0
-67 -2317 0
-68 -2318 0
-69 -2319 0
-70 -2320 0
-71 -2321 0
-72 -2322 0
-64 -2323 0
-65 -2324 0
-66 -2325 0
-67 -2326 0
-68 -2327 0
-69 -2328 0
-70 -2329 0
-71 -2330 0
-72 -2331 0
-73 -100 0
-74 -101 0
-75 -102 0
-76 -103 0
-77 -104 0
-78 -105 0
-79 -106 0
-80 -107 0
-81 -108 0
-73 -127 0
-74 -128 0
-75 -129 0
-76 -130 0
-77 -131 0
-78 -132 0
-79 -133 0
-80 -134 0
-81 -135 0
-73 -145 0
-74 -146 0
-75 -147 0
-76 -148 0
-77 -149 0
-78 -150 0
-79 -151 0
-80 -152 0
-81 -153 0
-73 -163 0
-74 -164 0
-75 -165 0
-76 -166 0
-77 -167 0
-78 -168 0
-79 -169 0
-80 -170 0
-81 -171 0
-73 -181 0
-74 -182 0
-75 -183 0
-76 -184 0
-77 -185 0
-78 -186 0
-79 -187 0
-80 -188 0
-81 -189 0
-73 -199 0
-74 -200 0
-75 -201 0
-76 -202 0
-77 -203 0
-78 -204 0
-79 -205 0
-80 -206 0
-81 -207 0
-73 -217 0
-74 -218 0
-75 -219 0
-76 -220 0
-77 -221 0
-78 -222 0
-79 -223 0
-80 -224 0
-81 -225 0
-73 -226 0
-74 -227 0
-75 -228 0
-76 -229 0
-77 -230 0
-78 -231 0
-79 -232 0
-80 -233 0
-81 -234 0
-73 -253 0
-74 -254 0
-75 -255 0
-76 -256 0
-77 -257 0
-78 -258 0
-79 -259 0
-80 -260 0
-81 -261 0
-73 -271 0
-74 -272 0
-75 -273 0
-76 -274 0
-77 -275 0
-78 -276 0
-79 -277 0
-80 -278 0
-81 -279 0
-73 -298 0
-74 -299 0
-75 -300 0
-76 -301 0
-77 -302 0
-78 -303 0
-79 -304 0
-80 -305 0
-81 -306 0
-73 -316 0
-74 -317 0
-75 -318 0
-76 -319 0
-77 -320 0
-78 -321 0
-79 -322 0
-80 -323 0
-81 -324 0
-73 -397 0
-74 -398 0
-75 -399 0
-76 -400 0
-77 -401 0
-78 -402 0
-79 -403 0
-80 -404 0
-81 -405 0
-73 -415 0
-74 -416 0
-75 -417 0
-76 -418 0
-77 -419 0
-78 -420 0
-79 -421 0
-80 -422 0
-81 -423 0
-73 -433 0
-74 -434 0
-75 -435 0
-76 -436 0
-77 -437 0
-78 -438 0
-79 -439 0
-80 -440 0
-81 -441 0
-73 -469 0
-74 -470 0
-75 -471 0
-76 -472 0
-77 -473 0
-78 -474 0
-79 -475 0
-80 -476 0
-81 -477 0
-73 -514 0
-74 -515 0
-75 -516 0
-76 -517 0
-77 -518 0
-78 -519 0
-79 -520 0
-80 -521 0
-81 -522 0
-73 -739 0
-74 -740 0
-75 -741 0
-76 -742 0
-77 -743 0
-78 -744 0
-79 -745 0
-80 -746 0
-81 -747 0
-73 -757 0
-74 -758 0
-75 -759 0
-76 -760 0
-77 -761 0
-78 -762 0
-79 -763 0
-80 -764 0
-81 -765 0
-73 -838 0
-74 -839 0
-75 -840 0
-76 -841 0
-77 -842 0
-78 -843 0
-79 -844 0
-80 -845 0
-81 -846 0
-73 -901 0
-74 -902 0
-75 -903 0
-76 -904 0
-77 -905 0
-78 -906 0
-79 -907 0
-80 -908 0
-81 -909 0
-73 -1000 0
-74 -1001 0
-75 -1002 0
-76 -1003 0
-77 -1004 0
-78 -1005 0
-79 -1006 0
-80 -1007 0
-81 -1008 0
-73 -1018 0
-74 -1019 0
-75 -1020 0
-76 -1021 0
-77 -1022 0
-78 -1023 0
-79 -1024 0
-80 -1025 0
-81 -1026 0
-73 -1090 0
-74 -1091 0
-75 -1092 0
-76 -1093 0
-77 -1094 0
-78 -1095 0
-79 -1096 0
-80 -1097 0
-81 -1098 0
-73 -1099 0
-74 -1100 0
-75 -1101 0
-76 -1102 0
-77 -1103 0
-78 -1104 0
-79 -1105 0
-80 -1106 0
-81 -1107 0
-73 -1135 0
-74 -1136 0
-75 -1137 0
-76 -1138 0
-77 -1139 0
-78 -1140 0
-79 -1141 0
-80 -1142 0
-81 -1143 0
-73 -1198 0
-74 -1199 0
-75 -1200 0
-76 -1201 0
-77 -1202 0
-78 -1203 0
-79 -1204 0
-80 -1205 0
-81 -1206 0
-73 -1324 0
-74 -1325 0
-75 -1326 0
-76 -1327 0
-77 -1328 0
-78 -1329 0
-79 -1330 0
-80 -1331 0
-81 -1332 0
-73 -1369 0
-74 -1370 0
-75 -1371 0
-76 -1372 0
-77 -1373 0
-78 -1374 0
-79 -1375 0
-80 -1376 0
-81 -1377 0
-73 -1441 0
-74 -1442 0
-75 -1443 0
-76 -1444 0
-77 -1445 0
-78 -1446 0
-79 -1447 0
-80 -1448 0
-81 -1449 0
-73 -1477 0
-74 -1478 0
-75 -1479 0
-76 -1480 0
-77 -1481 0
-78 -1482 0
-79 -1483 0
-80 -1484 0
-81 -1485 0
-73 -1513 0
-74 -1514 0
-75 -1515 0
-76 -1516 0
-77 -1517 0
-78 -1518 0
-79 -1519 0
-80 -1520 0
-81 -1521 0
-73 -1522 0
-74 -1523 0
-75 -1524 0
-76 -1525 0
-77 -1526 0
-78 -1527 0
-79 -1528 0
-80 -1529 0
-81 -1530 0
-73 -1585 0
-74 -1586 0
-75 -1587 0
-76 -1588 0
-77 -1589 0
-78 -1590 0
-79 -1591 0
-80 -1592 0
-81 -1593 0
-73 -1594 0
-74 -1595 0
-75 -1596 0
-76 -1597 0
-77 -1598 0
-78 -1599 0
-79 -1600 0
-80 -1601 0
-81 -1602 0
-73 -1621 0
-74 -1622 0
-75 -1623 0
-76 -1624 0
-77 -1625 0
-78 -1626 0
-79 -1627 0
-80 -1628 0
-81 -1629 0
-73 -1720 0
-74 -1721 0
-75 -1722 0
-76 -1723 0
-77 -1724 0
-78 -1725 0
-79 -1726 0
-80 -1727 0
-81 -1728 0
-73 -1783 0
-74 -1784 0
-75 -1785 0
-76 -1786 0
-77 -1787 0
-78 -1788 0
-79 -1789 0
-80 -1790 0
-81 -1791 0
-73 -1828 0
-74 -1829 0
-75 -1830 0
-76 -1831 0
-77 -1832 0
-78 -1833 0
-79 -1834 0
-80 -1835 0
-81 -1836 0
-73 -1837 0
-74 -1838 0
-75 -1839 0
-76 -1840 0
-77 -1841 0
-78 -1842 0
-79 -1843 0
-80 -1844 0
-81 -1845 0
-73 -1873 0
-74 -1874 0
-75 -1875 0
-76 -1876 0
-77 -1877 0
-78 -1878 0
-79 -1879 0
-80 -1880 0
-81 -1881 0
-73 -1891 0
-74 -1892 0
-75 -1893 0
-76 -1894 0
-77 -1895 0
-78 -1896 0
-79 -1897 0
-80 -1898 0
-81 -1899 0
-73 -2071 0
-74 -2072 0
-75 -2073 0
-76 -2074 0
-77 -2075 0
-78 -2076 0
-79 -2077 0
-80 -2078 0
-81 -2079 0
-73 -2188 0
-74 -2189 0
-75 -2190 0
-76 -2191 0
-77 -2192 0
-78 -2193 0
-79 -2194 0
-80 -2195 0
-81 -2196 0
-73 -2251 0
-74 -2252 0
-75 -2253 0
-76 -2254 0
-77 -2255 0
-78 -2256 0
-79 -2257 0
-80 -2258 0
-81 -2259 0
-73 -2278 0
-74 -2279 0
-75 -2280 0
-76 -2281 0
-77 -2282 0
-78 -2283 0
-79 -2284 0
-80 -2285 0
-81 -2286 0
-73 -2332 0
-74 -2333 0
-75 -2334 0
-76 -2335 0
-77 -2336 0
-78 -2337 0
-79 -2338 0
-80 -2339 0
-81 -2340 0
-73 -2341 0
-74 -2342 0
-75 -2343 0
-76 -2344 0
-77 -2345 0
-78 -2346 0
-79 -2347 0
-80 -2348 0
-81 -2349 0
-73 -2350 0
-74 -2351 0
-75 -2352 0
-76 -2353 0
-77 -2354 0
-78 -2355 0
-79 -2356 0
-80 -2357 0
-81 -2358 0
-73 -2359 0
-74 -2360 0
-75 -2361 0
-76 -2362 0
-77 -2363 0
-78 -2364 0
-79 -2365 0
-80 -2366 0
-81 -2367 0
-73 -2368 0
-74 -2369 0
-75 -2370 0
-76 -2371 0
-77 -2372 0
-78 -2373 0
-79 -2374 0
-80 -2375 0
-81 -2376 0
-73 -2377 0
-74 -2378 0
-75 -2379 0
-76 -2380 0
-77 -2381 0
-78 -2382 0
-79 -2383 0
-80 -2384 0
-81 -2385 0
-73 -2386 0
-74 -2387 0
-75 -2388 0
-76 -2389 0
-77 -2390 0
-78 -2391 0
-79 -2392 0
-80 -2393 0
-81 -2394 0
-82 -91 0
-83 -92 0
-84 -93 0
-85 -94 0
-86 -95 0
-87 -96 0
-88 -97 0
-89 -98 0
-90 -99 0
-82 -136 0
-83 -137 0
-84 -138 0
-85 -139 0
-86 -140 0
-87 -141 0
-88 -142 0
-89 -143 0
-90 -144 0
-82 -154 0
-83 -155 0
-84 -156 0
-85 -157 0
-86 -158 0
-87 -159 0
-88 -160 0
-89 -161 0
-90 -162 0
-82 -163 0
-83 -164 0
-84 -165 0
-85 -166 0
-86 -167 0
-87 -168 0
-88 -169 0
-89 -170 0
-90 -171 0
-82 -199 0
-83 -200 0
-84 -201 0
-85 -202 0
-86 -203 0
-87 -204 0
-88 -205 0
-89 -206 0
-90 -207 0
-82 -208 0
-83 -209 0
-84 -210 0
-85 -211 0
-86 -212 0
-87 -213 0
-88 -214 0
-89 -215 0
-90 -216 0
-82 -235 0
-83 -236 0
-84 -237 0
-85 -238 0
-86 -239 0
-87 -240 0
-88 -241 0
-89 -242 0
-90 -243 0
-82 -244 0
-83 -245 0
-84 -246 0
-85 -247 0
-86 -248 0
-87 -249 0
-88 -250 0
-89 -251 0
-90 -252 0
-82 -280 0
-83 -281 0
-84 -282 0
-85 -283 0
-86 -284 0
-87 -285 0
-88 -286 0
-89 -287 0
-90 -288 0
-82 -298 0
-83 -299 0
-84 -300 0
-85 -301 0
-86 -302 0
-87 -303 0
-88 -304 0
-89 -305 0
-90 -306 0
-82 -334 0
-83 -335 0
-84 -336 0
-85 -337 0
-86 -338 0
-87 -339 0
-88 -340 0
-89 -341 0
-90 -342 0
-82 -343 0
-83 -344 0
-84 -345 0
-85 -346 0
-86 -347 0
-87 -348 0
-88 -349 0
-89 -350 0
-90 -351 0
-82 -397 0
-83 -398 0
-84 -399 0
-85 -400 0
-86 -401 0
-87 -402 0
-88 -403 0
-89 -404 0
-90 -405 0
-82 -442 0
-83 -443 0
-84 -444 0
-85 -445 0
-86 -446 0
-87 -447 0
-88 -448 0
-89 -449 0
-90 -450 0
-82 -451 0
-83 -452 0
-84 -453 0
-85 -454 0
-86 -455 0
-87 -456 0
-88 -457 0
-89 -458 0
-90 -459 0
-82 -487 0
-83 -488 0
-84 -489 0
-85 -490 0
-86 -491 0
-87 -492 0
-88 -493 0
-89 -494 0
-90 -495 0
-82 -496 0
-83 -497 0
-84 -498 0
-85 -499 0
-86 -500 0
-87 -501 0
-88 -502 0
-89 -503 0
-90 -504 0
-82 -775 0
-83 -776 0
-84 -777 0
-85 -778 0
-86 -779 0
-87 -780 0
-88 -781 0
-89 -782 0
-90 -783 0
-82 -784 0
-83 -785 0
-84 -786 0
-85 -787 0
-86 -788 0
-87 -789 0
-88 -790 0
-89 -791 0
-90 -792 0
-82 -874 0
-83 -875 0
-84 -876 0
-85 -877 0
-86 -878 0
-87 -879 0
-88 -880 0
-89 -881 0
-90 -882 0
-82 -883 0
-83 -884 0
-84 -885 0
-85 -886 0
-86 -887 0
-87 -888 0
-88 -889 0
-89 -890 0
-90 -891 0
-82 -973 0
-83 -974 0
-84 -975 0
-85 -976 0
-86 -977 0
-87 -978 0
-88 -979 0
-89 -980 0
-90 -981 0
-82 -1018 0
-83 -1019 0
-84 -1020 0
-85 -1021 0
-86 -1022 0
-87 -1023 0
-88 -1024 0
-89 -1025 0
-90 -1026 0
-82 -1081 0
-83 -1082 0
-84 -1083 0
-85 -1084 0
-86 -1085 0
-87 -1086 0
-88 -1087 0
-89 -1088 0
-90 -1089 0
-82 -1117 0
-83 -1118 0
-84 -1119 0
-85 -1120 0
-86 -1121 0
-87 -1122 0
-88 -1123 0
-89 -1124 0
-90 -1125 0
-82 -1171 0
-83 -1172 0
-84 -1173 0
-85 -1174 0
-86 -1175 0
-87 -1176 0
-88 -1177 0
-89 -1178 0
-90 -1179 0
-82 -1207 0
-83 -1208 0
-84 -1209 0
-85 -1210 0
-86 -1211 0
-87 -1212 0
-88 -1213 0
-89 -1214 0
-90 -1215 0
-82 -1252 0
-83 -1253 0
-84 -1254 0
-85 -1255 0
-86 -1256 0
-87 -1257 0
-88 -1258 0
-89 -1259 0
-90 -1260 0
-82 -1297 0
-83 -1298 0
-84 -1299 0
-85 -1300 0
-86 -1301 0
-87 -1302 0
-88 -1303 0
-89 -1304 0
-90 -1305 0
-82 -1333 0
-83 -1334 0
-84 -1335 0
-85 -1336 0
-86 -1337 0
-87 -1338 0
-88 -1339 0
-89 -1340 0
-90 -1341 0
-82 -1378 0
-83 -1379 0
-84 -1380 0
-85 -1381 0
-86 -1382 0
-87 -1383 0
-88 -1384 0
-89 -1385 0
-90 -1386 0
-82 -1414 0
-83 -1415 0
-84 -1416 0
-85 -1417 0
-86 -1418 0
-87 -1419 0
-88 -1420 0
-89 -1421 0
-90 -1422 0
-82 -1540 0
-83 -1541 0
-84 -1542 0
-85 -1543 0
-86 -1544 0
-87 -1545 0
-88 -1546 0
-89 -1547 0
-90 -1548 0
-82 -1549 0
-83 -1550 0
-84 -1551 0
-85 -1552 0
-86 -1553 0
-87 -1554 0
-88 -1555 0
-89 -1556 0
-90 -1557 0
-82 -1594 0
-83 -1595 0
-84 -1596 0
-85 -1597 0
-86 -1598 0
-87 -1599 0
-88 -1600 0
-89 -1601 0
-90 -1602 0
-82 -1603 0
-83 -1604 0
-84 -1605 0
-85 -1606 0
-86 -1607 0
-87 -1608 0
-88 -1609 0
-89 -1610 0
-90 -1611 0
-82 -1612 0
-83 -1613 0
-84 -1614 0
-85 -1615 0
-86 -1616 0
-87 -1617 0
-88 -1618 0
-89 -1619 0
-90 -1620 0
-82 -1657 0
-83 -1658 0
-84 -1659 0
-85 -1660 0
-86 -1661 0
-87 -1662 0
-88 -1663 0
-89 -1664 0
-90 -1665 0
-82 -1666 0
-83 -1667 0
-84 -1668 0
-85 -1669 0
-86 -1670 0
-87 -1671 0
-88 -1672 0
-89 -1673 0
-90 -1674 0
-82 -1846 0
-83 -1847 0
-84 -1848 0
-85 -1849 0
-86 -1850 0
-87 -1851 0
-88 -1852 0
-89 -1853 0
-90 -1854 0
-82 -1936 0
-83 -1937 0
-84 -1938 0
-85 -1939 0
-86 -1940 0
-87 -1941 0
-88 -1942 0
-89 -1943 0
-90 -1944 0
-82 -2008 0
-83 -2009 0
-84 -2010 0
-85 -2011 0
-86 -2012 0
-87 -2013 0
-88 -2014 0
-89 -2015 0
-90 -2016 0
-82 -2062 0
-83 -2063 0
-84 -2064 0
-85 -2065 0
-86 -2066 0
-87 -2067 0
-88 -2068 0
-89 -2069 0
-90 -2070 0
-82 -2215 0
-83 -2216 0
-84 -2217 0
-85 -2218 0
-86 -2219 0
-87 -2220 0
-88 -2221 0
-89 -2222 0
-90 -2223 0
-82 -2269 0
-83 -2270 0
-84 -2271 0
-85 -2272 0
-86 -2273 0
-87 -2274 0
-88 -2275 0
-89 -2276 0
-90 -2277 0
-82 -2278 0
-83 -2279 0
-84 -2280 0
-85 -2281 0
-86 -2282 0
-87 -2283 0
-88 -2284 0
-89 -2285 0
-90 -2286 0
-82 -2341 0
-83 -2342 0
-84 -2343 0
-85 -2344 0
-86 -2345 0
-87 -2346 0
-88 -2347 0
-89 -2348 0
-90 -2349 0
-82 -2395 0
-83 -2396 0
-84 -2397 0
-85 -2398 0
-86 -2399 0
-87 -2400 0
-88 -2401 0
-89 -2402 0
-90 -2403 0
-82 -2404 0
-83 -2405 0
-84 -2406 0
-85 -2407 0
-86 -2408 0
-87 -2409 0
-88 -2410 0
-89 -2411 0
-90 -2412 0
-82 -2413 0
-83 -2414 0
-84 -2415 0
-85 -2416 0
-86 -2417 0
-87 -2418 0
-88 -2419 0
-89 -2420 0
-90 -2421 0
-82 -2422 0
-83 -2423 0
-84 -2424 0
-85 -2425 0
-86 -2426 0
-87 -2427 0
-88 -2428 0
-89 -2429 0
-90 -2430 0
-82 -2431 0
-83 -2432 0
-84 -2433 0
-85 -2434 0
-86 -2435 0
-87 -2436 0
-88 -2437 0
-89 -2438 0
-90 -2439 0
-82 -2440 0
-83 -2441 0
-84 -2442 0
-85 -2443 0
-86 -2444 0
-87 -2445 0
-88 -2446 0
-89 -2447 0
-90 -2448 0
-91 -136 0
-92 -137 0
-93 -138 0
-94 -139 0
-95 -140 0
-96 -141 0
-97 -142 0
-98 -143 0
-99 -144 0
-91 -154 0
-92 -155 0
-93 -156 0
-94 -157 0
-95 -158 0
-96 -159 0
-97 -160 0
-98 -161 0
-99 -162 0
-91 -163 0
-92 -164 0
-93 -165 0
-94 -166 0
-95 -167 0
-96 -168 0
-97 -169 0
-98 -170 0
-99 -171 0
-91 -199 0
-92 -200 0
-93 -201 0
-94 -202 0
-95 -203 0
-96 -204 0
-97 -205 0
-98 -206 0
-99 -207 0
-91 -208 0
-92 -209 0
-93 -210 0
-94 -211 0
-95 -212 0
-96 -213 0
-97 -214 0
-98 -215 0
-99 -216 0
-91 -262 0
-92 -263 0
-93 -264 0
-94 -265 0
-95 -266 0
-96 -267 0
-97 -268 0
-98 -269 0
-99 -270 0
-91 -271 0
-92 -272 0
-93 -273 0
-94 -274 0
-95 -275 0
-96 -276 0
-97 -277 0
-98 -278 0
-99 -279 0
-91 -307 0
-92 -308 0
-93 -309 0
-94 -310 0
-95 -311 0
-96 -312 0
-97 -313 0
-98 -314 0
-99 -315 0
-91 -325 0
-92 -326 0
-93 -327 0
-94 -328 0
-95 -329 0
-96 -330 0
-97 -331 0
-98 -332 0
-99 -333 0
-91 -460 0
-92 -461 0
-93 -462 0
-94 -463 0
-95 -464 0
-96 -465 0
-97 -466 0
-98 -467 0
-99 -468 0
-91 -487 0
-92 -488 0
-93 -489 0
-94 -490 0
-95 -491 0
-96 -492 0
-97 -493 0
-98 -494 0
-99 -495 0
-91 -496 0
-92 -497 0
-93 -498 0
-94 -499 0
-95 -500 0
-96 -501 0
-97 -502 0
-98 -503 0
-99 -504 0
-91 -631 0
-92 -632 0
-93 -633 0
-94 -634 0
-95 -635 0
-96 -636 0
-97 -637 0
-98 -638 0
-99 -639 0
-91 -640 0
-92 -641 0
-93 -642 0
-94 -643 0
-95 -644 0
-96 -645 0
-97 -646 0
-98 -647 0
-99 -648 0
-91 -820 0
-92 -821 0
-93 -822 0
-94 -823 0
-95 -824 0
-96 -825 0
-97 -826 0
-98 -827 0
-99 -828 0
-91 -829 0
-92 -830 0
-93 -831 0
-94 -832 0
-95 -833 0
-96 -834 0
-97 -835 0
-98 -836 0
-99 -837 0
-91 -964 0
-92 -965 0
-93 -966 0
-94 -967 0
-95 -968 0
-96 -969 0
-97 -970 0
-98 -971 0
-99 -972 0
-91 -1036 0
-92 -1037 0
-93 -1038 0
-94 -1039 0
-95 -1040 0
-96 -1041 0
-97 -1042 0
-98 -1043 0
-99 -1044 0
-91 -1072 0
-92 -1073 0
-93 -1074 0
-94 -1075 0
-95 -1076 0
-96 -1077 0
-97 -1078 0
-98 -1079 0
-99 -1080 0
-91 -1081 0
-92 -1082 0
-93 -1083 0
-94 -1084 0
-95 -1085 0
-96 -1086 0
-97 -1087 0
-98 -1088 0
-99 -1089 0
-91 -1090 0
-92 -1091 0
-93 -1092 0
-94 -1093 0
-95 -1094 0
-96 -1095 0
-97 -1096 0
-98 -1097 0
-99 -1098 0
-91 -1135 0
-92 -1136 0
-93 -1137 0
-94 -1138 0
-95 -1139 0
-96 -1140 0
-97 -1141 0
-98 -1142 0
-99 -1143 0
-91 -1180 0
-92 -1181 0
-93 -1182 0
-94 -1183 0
-95 -1184 0
-96 -1185 0
-97 -1186 0
-98 -1187 0
-99 -1188 0
-91 -1198 0
-92 -1199 0
-93 -1200 0
-94 -1201 0
-95 -1202 0
-96 -1203 0
-97 -1204 0
-98 -1205 0
-99 -1206 0
-91 -1216 0
-92 -1217 0
-93 -1218 0
-94 -1219 0
-95 -1220 0
-96 -1221 0
-97 -1222 0
-98 -1223 0
-99 -1224 0
-91 -1234 0
-92 -1235 0
-93 -1236 0
-94 -1237 0
-95 -1238 0
-96 -1239 0
-97 -1240 0
-98 -1241 0
-99 -1242 0
-91 -1261 0
-92 -1262 0
-93 -1263 0
-94 -1264 0
-95 -1265 0
-96 -1266 0
-97 -1267 0
-98 -1268 0
-99 -1269 0
-91 -1288 0
-92 -1289 0
-93 -1290 0
-94 -1291 0
-95 -1292 0
-96 -1293 0
-97 -1294 0
-98 -1295 0
-99 -1296 0
-91 -1297 0
-92 -1298 0
-93 -1299 0
-94 -1300 0
-95 -1301 0
-96 -1302 0
-97 -1303 0
-98 -1304 0
-99 -1305 0
-91 -1306 0
-92 -1307 0
-93 -1308 0
-94 -1309 0
-95 -1310 0
-96 -1311 0
-97 -1312 0
-98 -1313 0
-99 -1314 0
-91 -1351 0
-92 -1352 0
-93 -1353 0
-94 -1354 0
-95 -1355 0
-96 -1356 0
-97 -1357 0
-98 -1358 0
-99 -1359 0
-91 -1387 0
-92 -1388 0
-93 -1389 0
-94 -1390 0
-95 -1391 0
-96 -1392 0
-97 -1393 0
-98 -1394 0
-99 -1395 0
-91 -1405 0
-92 -1406 0
-93 -1407 0
-94 -1408 0
-95 -1409 0
-96 -1410 0
-97 -1411 0
-98 -1412 0
-99 -1413 0
-91 -1540 0
-92 -1541 0
-93 -1542 0
-94 -1543 0
-95 -1544 0
-96 -1545 0
-97 -1546 0
-98 -1547 0
-99 -1548 0
-91 -1549 0
-92 -1550 0
-93 -1551 0
-94 -1552 0
-95 -1553 0
-96 -1554 0
-97 -1555 0
-98 -1556 0
-99 -1557 0
-91 -1837 0
-92 -1838 0
-93 -1839 0
-94 -1840 0
-95 -1841 0
-96 -1842 0
-97 -1843 0
-98 -1844 0
-99 -1845 0
-91 -1873 0
-92 -1874 0
-93 -1875 0
-94 -1876 0
-95 -1877 0
-96 -1878 0
-97 -1879 0
-98 -1880 0
-99 -1881 0
-91 -1882 0
-92 -1883 0
-93 -1884 0
-94 -1885 0
-95 -1886 0
-96 -1887 0
-97 -1888 0
-98 -1889 0
-99 -1890 0
-91 -2053 0
-92 -2054 0
-93 -2055 0
-94 -2056 0
-95 -2057 0
-96 -2058 0
-97 -2059 0
-98 -2060 0
-99 -2061 0
-91 -2089 0
-92 -2090 0
-93 -2091 0
-94 -2092 0
-95 -2093 0
-96 -2094 0
-97 -2095 0
-98 -2096 0
-99 -2097 0
-91 -2098 0
-92 -2099 0
-93 -2100 0
-94 -2101 0
-95 -2102 0
-96 -2103 0
-97 -2104 0
-98 -2105 0
-99 -2106 0
-91 -2278 0
-92 -2279 0
-93 -2280 0
-94 -2281 0
-95 -2282 0
-96 -2283 0
-97 -2284 0
-98 -2285 0
-99 -2286 0
-91 -2287 0
-92 -2288 0
-93 -2289 0
-94 -2290 0
-95 -2291 0
-96 -2292 0
-97 -2293 0
-98 -2294 0
-99 -2295 0
-91 -2314 0
-92 -2315 0
-93 -2316 0
-94 -2317 0
-95 -2318 0
-96 -2319 0
-97 -2320 0
-98 -2321 0
-99 -2322 0
-91 -2350 0
-92 -2351 0
-93 -2352 0
-94 -2353 0
-95 -2354 0
-96 -2355 0
-97 -2356 0
-98 -2357 0
-99 -2358 0
-91 -2377 0
-92 -2378 0
-93 -2379 0
-94 -2380 0
-95 -2381 0
-96 -2382 0
-97 -2383 0
-98 -2384 0
-99 -2385 0
-91 -2449 0
-92 -2450 0
-93 -2451 0
-94 -2452 0
-95 -2453 0
-96 -2454 0
-97 -2455 0
-98 -2456 0
-99 -2457 0
-91 -2458 0
-92 -2459 0
-93 -2460 0
-94 -2461 0
-95 -2462 0
-96 -2463 0
-97 -2464 0
-98 -2465 0
-99 -2466 0
-91 -2467 0
-92 -2468 0
-93 -2469 0
-94 -2470 0
-95 -2471 0
-96 -2472 0
-97 -2473 0
-98 -2474 0
-99 -2475 0
-91 -2476 0
-92 -2477 0
-93 -2478 0
-94 -2479 0
-95 -2480 0
-96 -2481 0
-97 -2482 0
-98 -2483 0
-99 -2484 0
-91 -2485 0
-92 -2486 0
-93 -2487 0
-94 -2488 0
-95 -2489 0
-96 -2490 0
-97 -2491 0
-98 -2492 0
-99 -2493 0
-91 -2494 0
-92 -2495 0
-93 -2496 0
-94 -2497 0
-95 -2498 0
-96 -2499 0
-97 -2500 0
-98 -2501 0
-99 -2502 0
-100 -127 0
-101 -128 0
-102 -129 0
-103 -130 0
-104 -131 0
-105 -132 0
-106 -133 0
-107 -134 0
-108 -135 0
-100 -145 0
-101 -146 0
-102 -147 0
-103 -148 0
-104 -149 0
-105 -150 0
-106 -151 0
-107 -152 0
-108 -153 0
-100 -163 0
-101 -164 0
-102 -165 0
-103 -166 0
-104 -167 0
-105 -168 0
-106 -169 0
-107 -170 0
-108 -171 0
-100 -199 0
-101 -200 0
-102 -201 0
-103 -202 0
-104 -203 0
-105 -204 0
-106 -205 0
-107 -206 0
-108 -207 0
-100 -226 0
-101 -227 0
-102 -228 0
-103 -229 0
-104 -230 0
-105 -231 0
-106 -232 0
-107 -233 0
-108 -234 0
-100 -289 0
-101 -290 0
-102 -291 0
-103 -292 0
-104 -293 0
-105 -294 0
-106 -295 0
-107 -296 0
-108 -297 0
-100 -307 0
-101 -308 0
-102 -309 0
-103 -310 0
-104 -311 0
-105 -312 0
-106 -313 0
-107 -314 0
-108 -315 0
-100 -334 0
-101 -335 0
-102 -336 0
-103 -337 0
-104 -338 0
-105 -339 0
-106 -340 0
-107 -341 0
-108 -342 0
-100 -352 0
-101 -353 0
-102 -354 0
-103 -355 0
-104 -356 0
-105 -357 0
-106 -358 0
-107 -359 0
-108 -360 0
-100 -460 0
-101 -461 0
-102 -462 0
-103 -463 0
-104 -464 0
-105 -465 0
-106 -466 0
-107 -467 0
-108 -468 0
-100 -469 0
-101 -470 0
-102 -471 0
-103 -472 0
-104 -473 0
-105 -474 0
-106 -475 0
-107 -476 0
-108 -477 0
-100 -514 0
-101 -515 0
-102 -516 0
-103 -517 0
-104 -518 0
-105 -519 0
-106 -520 0
-107 -521 0
-108 -522 0
-100 -613 0
-101 -614 0
-102 -615 0
-103 -616 0
-104 -617 0
-105 -618 0
-106 -619 0
-107 -620 0
-108 -621 0
-100 -658 0
-101 -659 0
-102 -660 0
-103 -661 0
-104 -662 0
-105 -663 0
-106 -664 0
-107 -665 0
-108 -666 0
-100 -802 0
-101 -803 0
-102 -804 0
-103 -805 0
-104 -806 0
-105 -807 0
-106 -808 0
-107 -809 0
-108 -810 0
-100 -865 0
-101 -866 0
-102 -867 0
-103 -868 0
-104 -869 0
-105 -870 0
-106 -871 0
-107 -872 0
-108 -873 0
-100 -928 0
-101 -929 0
-102 -930 0
-103 -931 0
-104 -932 0
-105 -933 0
-106 -934 0
-107 -935 0
-108 -936 0
-100 -1027 0
-101 -1028 0
-102 -1029 0
-103 -1030 0
-104 -1031 0
-105 -1032 0
-106 -1033 0
-107 -1034 0
-108 -1035 0
-100 -1072 0
-101 -1073 0
-102 -1074 0
-103 -1075 0
-104 -1076 0
-105 -1077 0
-106 -1078 0
-107 -1079 0
-108 -1080 0
-100 -1099 0
-101 -1100 0
-102 -1101 0
-103 -1102 0
-104 -1103 0
-105 -1104 0
-106 -1105 0
-107 -1106 0
-108 -1107 0
-100 -1117 0
-101 -1118 0
-102 -1119 0
-103 -1120 0
-104 -1121 0
-105 -1122 0
-106 -1123 0
-107 -1124 0
-108 -1125 0
-100 -1171 0
-101 -1172 0
-102 -1173 0
-103 -1174 0
-104 -1175 0
-105 -1176 0
-106 -1177 0
-107 -1178 0
-108 -1179 0
-100 -1189 0
-101 -1190 0
-102 -1191 0
-103 -1192 0
-104 -1193 0
-105 -1194 0
-106 -1195 0
-107 -1196 0
-108 -1197 0
-100 -1207 0
-101 -1208 0
-102 -1209 0
-103 -1210 0
-104 -1211 0
-105 -1212 0
-106 -1213 0
-107 -1214 0
-108 -1215 0
-100 -1225 0
-101 -1226 0
-102 -1227 0
-103 -1228 0
-104 -1229 0
-105 -1230 0
-106 -1231 0
-107 -1232 0
-108 -1233 0
-100 -1243 0
-101 -1244 0
-102 -1245 0
-103 -1246 0
-104 -1247 0
-105 -1248 0
-106 -1249 0
-107 -1250 0
-108 -1251 0
-100 -1261 0
-101 -1262 0
-102 -1263 0
-103 -1264 0
-104 -1265 0
-105 -1266 0
-106 -1267 0
-107 -1268 0
-108 -1269 0
-100 -1324 0
-101 -1325 0
-102 -1326 0
-103 -1327 0
-104 -1328 0
-105 -1329 0
-106 -1330 0
-107 -1331 0
-108 -1332 0
-100 -1369 0
-101 -1370 0
-102 -1371 0
-103 -1372 0
-104 -1373 0
-105 -1374 0
-106 -1375 0
-107 -1376 0
-108 -1377 0
-100 -1459 0
-101 -1460 0
-102 -1461 0
-103 -1462 0
-104 -1463 0
-105 -1464 0
-106 -1465 0
-107 -1466 0
-108 -1467 0
-100 -1468 0
-101 -1469 0
-102 -1470 0
-103 -1471 0
-104 -1472 0
-105 -1473 0
-106 -1474 0
-107 -1475 0
-108 -1476 0
-100 -1504 0
-101 -1505 0
-102 -1506 0
-103 -1507 0
-104 -1508 0
-105 -1509 0
-106 -1510 0
-107 -1511 0
-108 -1512 0
-100 -1522 0
-101 -1523 0
-102 -1524 0
-103 -1525 0
-104 -1526 0
-105 -1527 0
-106 -1528 0
-107 -1529 0
-108 -1530 0
-100 -1558 0
-101 -1559 0
-102 -1560 0
-103 -1561 0
-104 -1562 0
-105 -1563 0
-106 -1564 0
-107 -1565 0
-108 -1566 0
-100 -1576 0
-101 -1577 0
-102 -1578 0
-103 -1579 0
-104 -1580 0
-105 -1581 0
-106 -1582 0
-107 -1583 0
-108 -1584 0
-100 -1612 0
-101 -1613 0
-102 -1614 0
-103 -1615 0
-104 -1616 0
-105 -1617 0
-106 -1618 0
-107 -1619 0
-108 -1620 0
-100 -1648 0
-101 -1649 0
-102 -1650 0
-103 -1651 0
-104 -1652 0
-105 -1653 0
-106 -1654 0
-107 -1655 0
-108 -1656 0
-100 -1657 0
-101 -1658 0
-102 -1659 0
-103 -1660 0
-104 -1661 0
-105 -1662 0
-106 -1663 0
-107 -1664 0
-108 -1665 0
-100 -2044 0
-101 -2045 0
-102 -2046 0
-103 -2047 0
-104 -2048 0
-105 -2049 0
-106 -2050 0
-107 -2051 0
-108 -2052 0
-100 -2080 0
-101 -2081 0
-102 -2082 0
-103 -2083 0
-104 -2084 0
-105 -2085 0
-106 -2086 0
-107 -2087 0
-108 -2088 0
-100 -2107 0
-101 -2108 0
-102 -2109 0
-103 -2110 0
-104 -2111 0
-105 -2112 0
-106 -2113 0
-107 -2114 0
-108 -2115 0
-100 -2260 0
-101 -2261 0
-102 -2262 0
-103 -2263 0
-104 -2264 0
-105 -2265 0
-106 -2266 0
-107 -2267 0
-108 -2268 0
-100 -2278 0
-101 -2279 0
-102 -2280 0
-103 -2281 0
-104 -2282 0
-105 -2283 0
-106 -2284 0
-107 -2285 0
-108 -2286 0
-100 -2323 0
-101 -2324 0
-102 -2325 0
-103 -2326 0
-104 -2327 0
-105 -2328 0
-106 -2329 0
-107 -2330 0
-108 -2331 0
-100 -2404 0
-101 -2405 0
-102 -2406 0
-103 -2407 0
-104 -2408 0
-105 -2409 0
-106 -2410 0
-107 -2411 0
-108 -2412 0
-100 -2422 0
-101 -2423 0
-102 -2424 0
-103 -2425 0
-104 -2426 0
-105 -2427 0
-106 -2428 0
-107 -2429 0
-108 -2430 0
-100 -2458 0
-101 -2459 0
-102 -2460 0
-103 -2461 0
-104 -2462 0
-105 -2463 0
-106 -2464 0
-107 -2465 0
-108 -2466 0
-100 -2476 0
-101 -2477 0
-102 -2478 0
-103 -2479 0
-104 -2480 0
-105 -2481 0
-106 -2482 0
-107 -2483 0
-108 -2484 0
-100 -2485 0
-101 -2486 0
-102 -2487 0
-103 -2488 0
-104 -2489 0
-105 -2490 0
-106 -2491 0
-107 -2492 0
-108 -2493 0
-100 -2503 0
-101 -2504 0
-102 -2505 0
-103 -2506 0
-104 -2507 0
-105 -2508 0
-106 -2509 0
-107 -2510 0
-108 -2511 0
-100 -2512 0
-101 -2513 0
-102 -2514 0
-103 -2515 0
-104 -2516 0
-105 -2517 0
-106 -2518 0
-107 -2519 0
-108 -2520 0
-100 -2521 0
-101 -2522 0
-102 -2523 0
-103 -2524 0
-104 -2525 0
-105 -2526 0
-106 -2527 0
-107 -2528 0
-108 -2529 0
-109 -118 0
-110 -119 0
-111 -120 0
-112 -121 0
-113 -122 0
-114 -123 0
-115 -124 0
-116 -125 0
-117 -126 0
-109 -145 0
-110 -146 0
-111 -147 0
-112 -148 0
-113 -149 0
-114 -150 0
-115 -151 0
-116 -152 0
-117 -153 0
-109 -154 0
-110 -155 0
-111 -156 0
-112 -157 0
-113 -158 0
-114 -159 0
-115 -160 0
-116 -161 0
-117 -162 0
-109 -208 0
-110 -209 0
-111 -210 0
-112 -211 0
-113 -212 0
-114 -213 0
-115 -214 0
-116 -215 0
-117 -216 0
-109 -226 0
-110 -227 0
-111 -228 0
-112 -229 0
-113 -230 0
-114 -231 0
-115 -232 0
-116 -233 0
-117 -234 0
-109 -316 0
-110 -317 0
-111 -318 0
-112 -319 0
-113 -320 0
-114 -321 0
-115 -322 0
-116 -323 0
-117 -324 0
-109 -325 0
-110 -326 0
-111 -327 0
-112 -328 0
-113 -329 0
-114 -330 0
-115 -331 0
-116 -332 0
-117 -333 0
-109 -343 0
-110 -344 0
-111 -345 0
-112 -346 0
-113 -347 0
-114 -348 0
-115 -349 0
-116 -350 0
-117 -351 0
-109 -352 0
-110 -353 0
-111 -354 0
-112 -355 0
-113 -356 0
-114 -357 0
-115 -358 0
-116 -359 0
-117 -360 0
-109 -460 0
-110 -461 0
-111 -462 0
-112 -463 0
-113 -464 0
-114 -465 0
-115 -466 0
-116 -467 0
-117 -468 0
-109 -478 0
-110 -479 0
-111 -480 0
-112 -481 0
-113 -482 0
-114 -483 0
-115 -484 0
-116 -485 0
-117 -486 0
-109 -505 0
-110 -506 0
-111 -507 0
-112 -508 0
-113 -509 0
-114 -510 0
-115 -511 0
-116 -512 0
-117 -513 0
-109 -622 0
-110 -623 0
-111 -624 0
-112 -625 0
-113 -626 0
-114 -627 0
-115 -628 0
-116 -629 0
-117 -630 0
-109 -649 0
-110 -650 0
-111 -651 0
-112 -652 0
-113 -653 0
-114 -654 0
-115 -655 0
-116 -656 0
-117 -657 0
-109 -811 0
-110 -812 0
-111 -813 0
-112 -814 0
-113 -815 0
-114 -816 0
-115 -817 0
-116 -818 0
-117 -819 0
-109 -856 0
-110 -857 0
-111 -858 0
-112 -859 0
-113 -860 0
-114 -861 0
-115 -862 0
-116 -863 0
-117 -864 0
-109 -910 0
-110 -911 0
-111 -912 0
-112 -913 0
-113 -914 0
-114 -915 0
-115 -916 0
-116 -917 0
-117 -918 0
-109 -1027 0
-110 -1028 0
-111 -1029 0
-112 -1030 0
-113 -1031 0
-114 -1032 0
-115 -1033 0
-116 -1034 0
-117 -1035 0
-109 -1036 0
-110 -1037 0
-111 -1038 0
-112 -1039 0
-113 -1040 0
-114 -1041 0
-115 -1042 0
-116 -1043 0
-117 -1044 0
-109 -1108 0
-110 -1109 0
-111 -1110 0
-112 -1111 0
-113 -1112 0
-114 -1113 0
-115 -1114 0
-116 -1115 0
-117 -1116 0
-109 -1162 0
-110 -1163 0
-111 -1164 0
-112 -1165 0
-113 -1166 0
-114 -1167 0
-115 -1168 0
-116 -1169 0
-117 -1170 0
-109 -1288 0
-110 -1289 0
-111 -1290 0
-112 -1291 0
-113 -1292 0
-114 -1293 0
-115 -1294 0
-116 -1295 0
-117 -1296 0
-109 -1315 0
-110 -1316 0
-111 -1317 0
-112 -1318 0
-113 -1319 0
-114 -1320 0
-115 -1321 0
-116 -1322 0
-117 -1323 0
-109 -1333 0
-110 -1334 0
-111 -1335 0
-112 -1336 0
-113 -1337 0
-114 -1338 0
-115 -1339 0
-116 -1340 0
-117 -1341 0
-109 -1378 0
-110 -1379 0
-111 -1380 0
-112 -1381 0
-113 -1382 0
-114 -1383 0
-115 -1384 0
-116 -1385 0
-117 -1386 0
-109 -1396 0
-110 -1397 0
-111 -1398 0
-112 -1399 0
-113 -1400 0
-114 -1401 0
-115 -1402 0
-116 -1403 0
-117 -1404 0
-109 -1414 0
-110 -1415 0
-111 -1416 0
-112 -1417 0
-113 -1418 0
-114 -1419 0
-115 -1420 0
-116 -1421 0
-117 -1422 0
-109 -1423 0
-110 -1424 0
-111 -1425 0
-112 -1426 0
-113 -1427 0
-114 -1428 0
-115 -1429 0
-116 -1430 0
-117 -1431 0
-109 -1432 0
-110 -1433 0
-111 -1434 0
-112 -1435 0
-113 -1436 0
-114 -1437 0
-115 -1438 0
-116 -1439 0
-117 -1440 0
-109 -1459 0
-110 -1460 0
-111 -1461 0
-112 -1462 0
-113 -1463 0
-114 -1464 0
-115 -1465 0
-116 -1466 0
-117 -1467 0
-109 -1477 0
-110 -1478 0
-111 -1479 0
-112 -1480 0
-113 -1481 0
-114 -1482 0
-115 -1483 0
-116 -1484 0
-117 -1485 0
-109 -1513 0
-110 -1514 0
-111 -1515 0
-112 -1516 0
-113 -1517 0
-114 -1518 0
-115 -1519 0
-116 -1520 0
-117 -1521 0
-109 -1531 0
-110 -1532 0
-111 -1533 0
-112 -1534 0
-113 -1535 0
-114 -1536 0
-115 -1537 0
-116 -1538 0
-117 -1539 0
-109 -1567 0
-110 -1568 0
-111 -1569 0
-112 -1570 0
-113 -1571 0
-114 -1572 0
-115 -1573 0
-116 -1574 0
-117 -1575 0
-109 -1585 0
-110 -1586 0
-111 -1587 0
-112 -1588 0
-113 -1589 0
-114 -1590 0
-115 -1591 0
-116 -1592 0
-117 -1593 0
-109 -1603 0
-110 -1604 0
-111 -1605 0
-112 -1606 0
-113 -1607 0
-114 -1608 0
-115 -1609 0
-116 -1610 0
-117 -1611 0
-109 -1639 0
-110 -1640 0
-111 -1641 0
-112 -1642 0
-113 -1643 0
-114 -1644 0
-115 -1645 0
-116 -1646 0
-117 -1647 0
-109 -1666 0
-110 -1667 0
-111 -1668 0
-112 -1669 0
-113 -1670 0
-114 -1671 0
-115 -1672 0
-116 -1673 0
-117 -1674 0
-109 -1828 0
-110 -1829 0
-111 -1830 0
-112 -1831 0
-113 -1832 0
-114 -1833 0
-115 -1834 0
-116 -1835 0
-117 -1836 0
-109 -1864 0
-110 -1865 0
-111 -1866 0
-112 -1867 0
-113 -1868 0
-114 -1869 0
-115 -1870 0
-116 -1871 0
-117 -1872 0
-109 -1891 0
-110 -1892 0
-111 -1893 0
-112 -1894 0
-113 -1895 0
-114 -1896 0
-115 -1897 0
-116 -1898 0
-117 -1899 0
-109 -2278 0
-110 -2279 0
-111 -2280 0
-112 -2281 0
-113 -2282 0
-114 -2283 0
-115 -2284 0
-116 -2285 0
-117 -2286 0
-109 -2332 0
-110 -2333 0
-111 -2334 0
-112 -2335 0
-113 -2336 0
-114 -2337 0
-115 -2338 0
-116 -2339 0
-117 -2340 0
-109 -2386 0
-110 -2387 0
-111 -2388 0
-112 -2389 0
-113 -2390 0
-114 -2391 0
-115 -2392 0
-116 -2393 0
-117 -2394 0
-109 -2395 0
-110 -2396 0
-111 -2397 0
-112 -2398 0
-113 -2399 0
-114 -2400 0
-115 -2401 0
-116 -2402 0
-117 -2403 0
-109 -2431 0
-110 -2432 0
-111 -2433 0
-112 -2434 0
-113 -2435 0
-114 -2436 0
-115 -2437 0
-116 -2438 0
-117 -2439 0
-109 -2449 0
-110 -2450 0
-111 -2451 0
-112 -2452 0
-113 -2453 0
-114 -2454 0
-115 -2455 0
-116 -2456 0
-117 -2457 0
-109 -2467 0
-110 -2468 0
-111 -2469 0
-112 -2470 0
-113 -2471 0
-114 -2472 0
-115 -2473 0
-116 -2474 0
-117 -2475 0
-109 -2485 0
-110 -2486 0
-111 -2487 0
-112 -2488 0
-113 -2489 0
-114 -2490 0
-115 -2491 0
-116 -2492 0
-117 -2493 0
-109 -2503 0
-110 -2504 0
-111 -2505 0
-112 -2506 0
-113 -2507 0
-114 -2508 0
-115 -2509 0
-116 -2510 0
-117 -2511 0
-109 -2512 0
-110 -2513 0
-111 -2514 0
-112 -2515 0
-113 -2516 0
-114 -2517 0
-115 -2518 0
-116 -2519 0
-117 -2520 0
-109 -2530 0
-110 -2531 0
-111 -2532 0
-112 -2533 0
-113 -2534 0
-114 -2535 0
-115 -2536 0
-116 -2537 0
-117 -2538 0
-118 -172 0
-119 -173 0
-120 -174 0
-121 -175 0
-122 -176 0
-123 -177 0
-124 -178 0
-125 -179 0
-126 -180 0
-118 -190 0
-119 -191 0
-120 -192 0
-121 -193 0
-122 -194 0
-123 -195 0
-124 -196 0
-125 -197 0
-126 -198 0
-118 -208 0
-119 -209 0
-120 -210 0
-121 -211 0
-122 -212 0
-123 -213 0
-124 -214 0
-125 -215 0
-126 -216 0
-118 -226 0
-119 -227 0
-120 -228 0
-121 -229 0
-122 -230 0
-123 -231 0
-124 -232 0
-125 -233 0
-126 -234 0
-118 -370 0
-119 -371 0
-120 -372 0
-121 -373 0
-122 -374 0
-123 -375 0
-124 -376 0
-125 -377 0
-126 -378 0
-118 -379 0
-119 -380 0
-120 -381 0
-121 -382 0
-122 -383 0
-123 -384 0
-124 -385 0
-125 -386 0
-126 -387 0
-118 -424 0
-119 -425 0
-120 -426 0
-121 -427 0
-122 -428 0
-123 -429 0
-124 -430 0
-125 -431 0
-126 -432 0
-118 -460 0
-119 -461 0
-120 -462 0
-121 -463 0
-122 -464 0
-123 -465 0
-124 -466 0
-125 -467 0
-126 -468 0
-118 -541 0
-119 -542 0
-120 -543 0
-121 -544 0
-122 -545 0
-123 -546 0
-124 -547 0
-125 -548 0
-126 -549 0
-118 -586 0
-119 -587 0
-120 -588 0
-121 -589 0
-122 -590 0
-123 -591 0
-124 -592 0
-125 -593 0
-126 -594 0
-118 -622 0
-119 -623 0
-120 -624 0
-121 -625 0
-122 -626 0
-123 -627 0
-124 -628 0
-125 -629 0
-126 -630 0
-118 -649 0
-119 -650 0
-120 -651 0
-121 -652 0
-122 -653 0
-123 -654 0
-124 -655 0
-125 -656 0
-126 -657 0
-118 -667 0
-119 -668 0
-120 -669 0
-121 -670 0
-122 -671 0
-123 -672 0
-124 -673 0
-125 -674 0
-126 -675 0
-118 -685 0
-119 -686 0
-120 -687 0
-121 -688 0
-122 -689 0
-123 -690 0
-124 -691 0
-125 -692 0
-126 -693 0
-118 -766 0
-119 -767 0
-120 -768 0
-121 -769 0
-122 -770 0
-123 -771 0
-124 -772 0
-125 -773 0
-126 -774 0
-118 -1072 0
-119 -1073 0
-120 -1074 0
-121 -1075 0
-122 -1076 0
-123 -1077 0
-124 -1078 0
-125 -1079 0
-126 -1080 0
-118 -1108 0
-119 -1109 0
-120 -1110 0
-121 -1111 0
-122 -1112 0
-123 -1113 0
-124 -1114 0
-125 -1115 0
-126 -1116 0
-118 -1162 0
-119 -1163 0
-120 -1164 0
-121 -1165 0
-122 -1166 0
-123 -1167 0
-124 -1168 0
-125 -1169 0
-126 -1170 0
-118 -1198 0
-119 -1199 0
-120 -1200 0
-121 -1201 0
-122 -1202 0
-123 -1203 0
-124 -1204 0
-125 -1205 0
-126 -1206 0
-118 -1207 0
-119 -1208 0
-120 -1209 0
-121 -1210 0
-122 -1211 0
-123 -1212 0
-124 -1213 0
-125 -1214 0
-126 -1215 0
-118 -1342 0
-119 -1343 0
-120 -1344 0
-121 -1345 0
-122 -1346 0
-123 -1347 0
-124 -1348 0
-125 -1349 0
-126 -1350 0
-118 -1351 0
-119 -1352 0
-120 -1353 0
-121 -1354 0
-122 -1355 0
-123 -1356 0
-124 -1357 0
-125 -1358 0
-126 -1359 0
-118 -1486 0
-119 -1487 0
-120 -1488 0
-121 -1489 0
-122 -1490 0
-123 -1491 0
-124 -1492 0
-125 -1493 0
-126 -1494 0
-118 -1504 0
-119 -1505 0
-120 -1506 0
-121 -1507 0
-122 -1508 0
-123 -1509 0
-124 -1510 0
-125 -1511 0
-126 -1512 0
-118 -1630 0
-119 -1631 0
-120 -1632 0
-121 -1633 0
-122 -1634 0
-123 -1635 0
-124 -1636 0
-125 -1637 0
-126 -1638 0
-118 -1657 0
-119 -1658 0
-120 -1659 0
-121 -1660 0
-122 -1661 0
-123 -1662 0
-124 -1663 0
-125 -1664 0
-126 -1665 0
-118 -1711 0
-119 -1712 0
-120 -1713 0
-121 -1714 0
-122 -1715 0
-123 -1716 0
-124 -1717 0
-125 -1718 0
-126 -1719 0
-118 -1729 0
-119 -1730 0
-120 -1731 0
-121 -1732 0
-122 -1733 0
-123 -1734 0
-124 -1735 0
-125 -1736 0
-126 -1737 0
-118 -1765 0
-119 -1766 0
-120 -1767 0
-121 -1768 0
-122 -1769 0
-123 -1770 0
-124 -1771 0
-125 -1772 0
-126 -1773 0
-118 -1855 0
-119 -1856 0
-120 -1857 0
-121 -1858 0
-122 -1859 0
-123 -1860 0
-124 -1861 0
-125 -1862 0
-126 -1863 0
-118 -1873 0
-119 -1874 0
-120 -1875 0
-121 -1876 0
-122 -1877 0
-123 -1878 0
-124 -1879 0
-125 -1880 0
-126 -1881 0
-118 -1945 0
-119 -1946 0
-120 -1947 0
-121 -1948 0
-122 -1949 0
-123 -1950 0
-124 -1951 0
-125 -1952 0
-126 -1953 0
-118 -1963 0
-119 -1964 0
-120 -1965 0
-121 -1966 0
-122 -1967 0
-123 -1968 0
-124 -1969 0
-125 -1970 0
-126 -1971 0
-118 -2179 0
-119 -2180 0
-120 -2181 0
-121 -2182 0
-122 -2183 0
-123 -2184 0
-124 -2185 0
-125 -2186 0
-126 -2187 0
-118 -2206 0
-119 -2207 0
-120 -2208 0
-121 -2209 0
-122 -2210 0
-123 -2211 0
-124 -2212 0
-125 -2213 0
-126 -2214 0
-118 -2467 0
-119 -2468 0
-120 -2469 0
-121 -2470 0
-122 -2471 0
-123 -2472 0
-124 -2473 0
-125 -2474 0
-126 -2475 0
-118 -2485 0
-119 -2486 0
-120 -2487 0
-121 -2488 0
-122 -2489 0
-123 -2490 0
-124 -2491 0
-125 -2492 0
-126 -2493 0
-118 -2512 0
-119 -2513 0
-120 -2514 0
-121 -2515 0
-122 -2516 0
-123 -2517 0
-124 -2518 0
-125 -2519 0
-126 -2520 0
-118 -2539 0
-119 -2540 0
-120 -2541 0
-121 -2542 0
-122 -2543 0
-123 -2544 0
-124 -2545 0
-125 -2546 0
-126 -2547 0
-118 -2548 0
-119 -2549 0
-120 -2550 0
-121 -2551 0
-122 -2552 0
-123 -2553 0
-124 -2554 0
-125 -2555 0
-126 -2556 0
-118 -2557 0
-119 -2558 0
-120 -2559 0
-121 -2560 0
-122 -2561 0
-123 -2562 0
-124 -2563 0
-125 -2564 0
-126 -2565 0
-118 -2566 0
-119 -2567 0
-120 -2568 0
-121 -2569 0
-122 -2570 0
-123 -2571 0
-124 -2572 0
-125 -2573 0
-126 -2574 0
-118 -2575 0
-119 -2576 0
-120 -2577 0
-121 -2578 0
-122 -2579 0
-123 -2580 0
-124 -2581 0
-125 -2582 0
-126 -2583 0
-118 -2584 0
-119 -2585 0
-120 -2586 0
-121 -2587 0
-122 -2588 0
-123 -2589 0
-124 -2590 0
-125 -2591 0
-126 -2592 0
-118 -2593 0
-119 -2594 0
-120 -2595 0
-121 -2596 0
-122 -2597 0
-123 -2598 0
-124 -2599 0
-125 -2600 0
-126 -2601 0
-118 -2602 0
-119 -2603 0
-120 -2604 0
-121 -2605 0
-122 -2606 0
-123 -2607 0
-124 -2608 0
-125 -2609 0
-126 -2610 0
-127 -181 0
-128 -182 0
-129 -183 0
-130 -184 0
-131 -185 0
-132 -186 0
-133 -187 0
-134 -188 0
-135 -189 0
-127 -199 0
-128 -200 0
-129 -201 0
-130 -202 0
-131 -203 0
-132 -204 0
-133 -205 0
-134 -206 0
-135 -207 0
-127 -217 0
-128 -218 0
-129 -219 0
-130 -220 0
-131 -221 0
-132 -222 0
-133 -223 0
-134 -224 0
-135 -225 0
-127 -226 0
-128 -227 0
-129 -228 0
-130 -229 0
-131 -230 0
-132 -231 0
-133 -232 0
-134 -233 0
-135 -234 0
-127 -370 0
-128 -371 0
-129 -372 0
-130 -373 0
-131 -374 0
-132 -375 0
-133 -376 0
-134 -377 0
-135 -378 0
-127 -388 0
-128 -389 0
-129 -390 0
-130 -391 0
-131 -392 0
-132 -393 0
-133 -394 0
-134 -395 0
-135 -396 0
-127 -433 0
-128 -434 0
-129 -435 0
-130 -436 0
-131 -437 0
-132 -438 0
-133 -439 0
-134 -440 0
-135 -441 0
-127 -460 0
-128 -461 0
-129 -462 0
-130 -463 0
-131 -464 0
-132 -465 0
-133 -466 0
-134 -467 0
-135 -468 0
-127 -532 0
-128 -533 0
-129 -534 0
-130 -535 0
-131 -536 0
-132 -537 0
-133 -538 0
-134 -539 0
-135 -540 0
-127 -595 0
-128 -596 0
-129 -597 0
-130 -598 0
-131 -599 0
-132 -600 0
-133 -601 0
-134 -602 0
-135 -603 0
-127 -613 0
-128 -614 0
-129 -615 0
-130 -616 0
-131 -617 0
-132 -618 0
-133 -619 0
-134 -620 0
-135 -621 0
-127 -658 0
-128 -659 0
-129 -660 0
-130 -661 0
-131 -662 0
-132 -663 0
-133 -664 0
-134 -665 0
-135 -666 0
-127 -676 0
-128 -677 0
-129 -678 0
-130 -679 0
-131 -680 0
-132 -681 0
-133 -682 0
-134 -683 0
-135 -684 0
-127 -694 0
-128 -695 0
-129 -696 0
-130 -697 0
-131 -698 0
-132 -699 0
-133 -700 0
-134 -701 0
-135 -702 0
-127 -766 0
-128 -767 0
-129 -768 0
-130 -769 0
-131 -770 0
-132 -771 0
-133 -772 0
-134 -773 0
-135 -774 0
-127 -1126 0
-128 -1127 0
-129 -1128 0
-130 -1129 0
-131 -1130 0
-132 -1131 0
-133 -1132 0
-134 -1133 0
-135 -1134 0
-127 -1135 0
-128 -1136 0
-129 -1137 0
-130 -1138 0
-131 -1139 0
-132 -1140 0
-133 -1141 0
-134 -1142 0
-135 -1143 0
-127 -1288 0
-128 -1289 0
-129 -1290 0
-130 -1291 0
-131 -1292 0
-132 -1293 0
-133 -1294 0
-134 -1295 0
-135 -1296 0
-127 -1324 0
-128 -1325 0
-129 -1326 0
-130 -1327 0
-131 -1328 0
-132 -1329 0
-133 -1330 0
-134 -1331 0
-135 -1332 0
-127 -1369 0
-128 -1370 0
-129 -1371 0
-130 -1372 0
-131 -1373 0
-132 -1374 0
-133 -1375 0
-134 -1376 0
-135 -1377 0
-127 -1405 0
-128 -1406 0
-129 -1407 0
-130 -1408 0
-131 -1409 0
-132 -1410 0
-133 -1411 0
-134 -1412 0
-135 -1413 0
-127 -1414 0
-128 -1415 0
-129 -1416 0
-130 -1417 0
-131 -1418 0
-132 -1419 0
-133 -1420 0
-134 -1421 0
-135 -1422 0
-127 -1495 0
-128 -1496 0
-129 -1497 0
-130 -1498 0
-131 -1499 0
-132 -1500 0
-133 -1501 0
-134 -1502 0
-135 -1503 0
-127 -1513 0
-128 -1514 0
-129 -1515 0
-130 -1516 0
-131 -1517 0
-132 -1518 0
-133 -1519 0
-134 -1520 0
-135 -1521 0
-127 -1621 0
-128 -1622 0
-129 -1623 0
-130 -1624 0
-131 -1625 0
-132 -1626 0
-133 -1627 0
-134 -1628 0
-135 -1629 0
-127 -1666 0
-128 -1667 0
-129 -1668 0
-130 -1669 0
-131 -1670 0
-132 -1671 0
-133 -1672 0
-134 -1673 0
-135 -1674 0
-127 -1720 0
-128 -1721 0
-129 -1722 0
-130 -1723 0
-131 -1724 0
-132 -1725 0
-133 -1726 0
-134 -1727 0
-135 -1728 0
-127 -1729 0
-128 -1730 0
-129 -1731 0
-130 -1732 0
-131 -1733 0
-132 -1734 0
-133 -1735 0
-134 -1736 0
-135 -1737 0
-127 -1756 0
-128 -1757 0
-129 -1758 0
-130 -1759 0
-131 -1760 0
-132 -1761 0
-133 -1762 0
-134 -1763 0
-135 -1764 0
-127 -1981 0
-128 -1982 0
-129 -1983 0
-130 -1984 0
-131 -1985 0
-132 -1986 0
-133 -1987 0
-134 -1988 0
-135 -1989 0
-127 -1999 0
-128 -2000 0
-129 -2001 0
-130 -2002 0
-131 -2003 0
-132 -2004 0
-133 -2005 0
-134 -2006 0
-135 -2007 0
-127 -2071 0
-128 -2072 0
-129 -2073 0
-130 -2074 0
-131 -2075 0
-132 -2076 0
-133 -2077 0
-134 -2078 0
-135 -2079 0
-127 -2089 0
-128 -2090 0
-129 -2091 0
-130 -2092 0
-131 -2093 0
-132 -2094 0
-133 -2095 0
-134 -2096 0
-135 -2097 0
-127 -2152 0
-128 -2153 0
-129 -2154 0
-130 -2155 0
-131 -2156 0
-132 -2157 0
-133 -2158 0
-134 -2159 0
-135 -2160 0
-127 -2170 0
-128 -2171 0
-129 -2172 0
-130 -2173 0
-131 -2174 0
-132 -2175 0
-133 -2176 0
-134 -2177 0
-135 -2178 0
-127 -2476 0
-128 -2477 0
-129 -2478 0
-130 -2479 0
-131 -2480 0
-132 -2481 0
-133 -2482 0
-134 -2483 0
-135 -2484 0
-127 -2485 0
-128 -2486 0
-129 -2487 0
-130 -2488 0
-131 -2489 0
-132 -2490 0
-133 -2491 0
-134 -2492 0
-135 -2493 0
-127 -2512 0
-128 -2513 0
-129 -2514 0
-130 -2515 0
-131 -2516 0
-132 -2517 0
-133 -2518 0
-134 -2519 0
-135 -2520 0
-127 -2539 0
-128 -2540 0
-129 -2541 0
-130 -2542 0
-131 -2543 0
-132 -2544 0
-133 -2545 0
-134 -2546 0
-135 -2547 0
-127 -2548 0
-128 -2549 0
-129 -2550 0
-130 -2551 0
-131 -2552 0
-132 -2553 0
-133 -2554 0
-134 -2555 0
-135 -2556 0
-127 -2575 0
-128 -2576 0
-129 -2577 0
-130 -2578 0
-131 -2579 0
-132 -2580 0
-133 -2581 0
-134 -2582 0
-135 -2583 0
-127 -2611 0
-128 -2612 0
-129 -2613 0
-130 -2614 0
-131 -2615 0
-132 -2616 0
-133 -2617 0
-134 -2618 0
-135 -2619 0
-127 -2620 0
-128 -2621 0
-129 -2622 0
-130 -2623 0
-131 -2624 0
-132 -2625 0
-133 -2626 0
-134 -2627 0
-135 -2628 0
-127 -2629 0
-128 -2630 0
-129 -2631 0
-130 -2632 0
-131 -2633 0
-132 -2634 0
-133 -2635 0
-134 -2636 0
-135 -2637 0
-127 -2638 0
-128 -2639 0
-129 -2640 0
-130 -2641 0
-131 -2642 0
-132 -2643 0
-133 -2644 0
-134 -2645 0
-135 -2646 0
-127 -2647 0
-128 -2648 0
-129 -2649 0
-130 -2650 0
-131 -2651 0
-132 -2652 0
-133 -2653 0
-134 -2654 0
-135 -2655 0
-136 -199 0
-137 -200 0
-138 -201 0
-139 -202 0
-140 -203 0
-141 -204 0
-142 -205 0
-143 -206 0
-144 -207 0
-136 -208 0
-137 -209 0
-138 -210 0
-139 -211 0
-140 -212 0
-141 -213 0
-142 -214 0
-143 -215 0
-144 -216 0
-136 -235 0
-137 -236 0
-138 -237 0
-139 -238 0
-140 -239 0
-141 -240 0
-142 -241 0
-143 -242 0
-144 -243 0
-136 -244 0
-137 -245 0
-138 -246 0
-139 -247 0
-140 -248 0
-141 -249 0
-142 -250 0
-143 -251 0
-144 -252 0
-136 -379 0
-137 -380 0
-138 -381 0
-139 -382 0
-140 -383 0
-141 -384 0
-142 -385 0
-143 -386 0
-144 -387 0
-136 -388 0
-137 -389 0
-138 -390 0
-139 -391 0
-140 -392 0
-141 -393 0
-142 -394 0
-143 -395 0
-144 -396 0
-136 -451 0
-137 -452 0
-138 -453 0
-139 -454 0
-140 -455 0
-141 -456 0
-142 -457 0
-143 -458 0
-144 -459 0
-136 -460 0
-137 -461 0
-138 -462 0
-139 -463 0
-140 -464 0
-141 -465 0
-142 -466 0
-143 -467 0
-144 -468 0
-136 -523 0
-137 -524 0
-138 -525 0
-139 -526 0
-140 -527 0
-141 -528 0
-142 -529 0
-143 -530 0
-144 -531 0
-136 -604 0
-137 -605 0
-138 -606 0
-139 -607 0
-140 -608 0
-141 -609 0
-142 -610 0
-143 -611 0
-144 -612 0
-136 -631 0
-137 -632 0
-138 -633 0
-139 -634 0
-140 -635 0
-141 -636 0
-142 -637 0
-143 -638 0
-144 -639 0
-136 -640 0
-137 -641 0
-138 -642 0
-139 -643 0
-140 -644 0
-141 -645 0
-142 -646 0
-143 -647 0
-144 -648 0
-136 -703 0
-137 -704 0
-138 -705 0
-139 -706 0
-140 -707 0
-141 -708 0
-142 -709 0
-143 -710 0
-144 -711 0
-136 -712 0
-137 -713 0
-138 -714 0
-139 -715 0
-140 -716 0
-141 -717 0
-142 -718 0
-143 -719 0
-144 -720 0
-136 -766 0
-137 -767 0
-138 -768 0
-139 -769 0
-140 -770 0
-141 -771 0
-142 -772 0
-143 -773 0
-144 -774 0
-136 -1153 0
-137 -1154 0
-138 -1155 0
-139 -1156 0
-140 -1157 0
-141 -1158 0
-142 -1159 0
-143 -1160 0
-144 -1161 0
-136 -1171 0
-137 -1172 0
-138 -1173 0
-139 -1174 0
-140 -1175 0
-141 -1176 0
-142 -1177 0
-143 -1178 0
-144 -1179 0
-136 -1360 0
-137 -1361 0
-138 -1362 0
-139 -1363 0
-140 -1364 0
-141 -1365 0
-142 -1366 0
-143 -1367 0
-144 -1368 0
-136 -1378 0
-137 -1379 0
-138 -1380 0
-139 -1381 0
-140 -1382 0
-141 -1383 0
-142 -1384 0
-143 -1385 0
-144 -1386 0
-136 -1459 0
-137 -1460 0
-138 -1461 0
-139 -1462 0
-140 -1463 0
-141 -1464 0
-142 -1465 0
-143 -1466 0
-144 -1467 0
-136 -1540 0
-137 -1541 0
-138 -1542 0
-139 -1543 0
-140 -1544 0
-141 -1545 0
-142 -1546 0
-143 -1547 0
-144 -1548 0
-136 -1549 0
-137 -1550 0
-138 -1551 0
-139 -1552 0
-140 -1553 0
-141 -1554 0
-142 -1555 0
-143 -1556 0
-144 -1557 0
-136 -1576 0
-137 -1577 0
-138 -1578 0
-139 -1579 0
-140 -1580 0
-141 -1581 0
-142 -1582 0
-143 -1583 0
-144 -1584 0
-136 -1585 0
-137 -1586 0
-138 -1587 0
-139 -1588 0
-140 -1589 0
-141 -1590 0
-142 -1591 0
-143 -1592 0
-144 -1593 0
-136 -1792 0
-137 -1793 0
-138 -1794 0
-139 -1795 0
-140 -1796 0
-141 -1797 0
-142 -1798 0
-143 -1799 0
-144 -1800 0
-136 -1801 0
-137 -1802 0
-138 -1803 0
-139 -1804 0
-140 -1805 0
-141 -1806 0
-142 -1807 0
-143 -1808 0
-144 -1809 0
-136 -1846 0
-137 -1847 0
-138 -1848 0
-139 -1849 0
-140 -1850 0
-141 -1851 0
-142 -1852 0
-143 -1853 0
-144 -1854 0
-136 -1891 0
-137 -1892 0
-138 -1893 0
-139 -1894 0
-140 -1895 0
-141 -1896 0
-142 -1897 0
-143 -1898 0
-144 -1899 0
-136 -1936 0
-137 -1937 0
-138 -1938 0
-139 -1939 0
-140 -1940 0
-141 -1941 0
-142 -1942 0
-143 -1943 0
-144 -1944 0
-136 -1945 0
-137 -1946 0
-138 -1947 0
-139 -1948 0
-140 -1949 0
-141 -1950 0
-142 -1951 0
-143 -1952 0
-144 -1953 0
-136 -1954 0
-137 -1955 0
-138 -1956 0
-139 -1957 0
-140 -1958 0
-141 -1959 0
-142 -1960 0
-143 -1961 0
-144 -1962 0
-136 -2062 0
-137 -2063 0
-138 -2064 0
-139 -2065 0
-140 -2066 0
-141 -2067 0
-142 -2068 0
-143 -2069 0
-144 -2070 0
-136 -2107 0
-137 -2108 0
-138 -2109 0
-139 -2110 0
-140 -2111 0
-141 -2112 0
-142 -2113 0
-143 -2114 0
-144 -2115 0
-136 -2152 0
-137 -2153 0
-138 -2154 0
-139 -2155 0
-140 -2156 0
-141 -2157 0
-142 -2158 0
-143 -2159 0
-144 -2160 0
-136 -2161 0
-137 -2162 0
-138 -2163 0
-139 -2164 0
-140 -2165 0
-141 -2166 0
-142 -2167 0
-143 -2168 0
-144 -2169 0
-136 -2467 0
-137 -2468 0
-138 -2469 0
-139 -2470 0
-140 -2471 0
-141 -2472 0
-142 -2473 0
-143 -2474 0
-144 -2475 0
-136 -2476 0
-137 -2477 0
-138 -2478 0
-139 -2479 0
-140 -2480 0
-141 -2481 0
-142 -2482 0
-143 -2483 0
-144 -2484 0
-136 -2485 0
-137 -2486 0
-138 -2487 0
-139 -2488 0
-140 -2489 0
-141 -2490 0
-142 -2491 0
-143 -2492 0
-144 -2493 0
-136 -2557 0
-137 -2558 0
-138 -2559 0
-139 -2560 0
-140 -2561 0
-141 -2562 0
-142 -2563 0
-143 -2564 0
-144 -2565 0
-136 -2566 0
-137 -2567 0
-138 -2568 0
-139 -2569 0
-140 -2570 0
-141 -2571 0
-142 -2572 0
-143 -2573 0
-144 -2574 0
-136 -2584 0
-137 -2585 0
-138 -2586 0
-139 -2587 0
-140 -2588 0
-141 -2589 0
-142 -2590 0
-143 -2591 0
-144 -2592 0
-136 -2611 0
-137 -2612 0
-138 -2613 0
-139 -2614 0
-140 -2615 0
-141 -2616 0
-142 -2617 0
-143 -2618 0
-144 -2619 0
-136 -2620 0
-137 -2621 0
-138 -2622 0
-139 -2623 0
-140 -2624 0
-141 -2625 0
-142 -2626 0
-143 -2627 0
-144 -2628 0
-136 -2629 0
-137 -2630 0
-138 -2631 0
-139 -2632 0
-140 -2633 0
-141 -2634 0
-142 -2635 0
-143 -2636 0
-144 -2637 0
-136 -2656 0
-137 -2657 0
-138 -2658 0
-139 -2659 0
-140 -2660 0
-141 -2661 0
-142 -2662 0
-143 -2663 0
-144 -2664 0
-136 -2665 0
-137 -2666 0
-138 -2667 0
-139 -2668 0
-140 -2669 0
-141 -2670 0
-142 -2671 0
-143 -2672 0
-144 -2673 0
-145 -172 0
-146 -173 0
-147 -174 0
-148 -175 0
-149 -176 0
-150 -177 0
-151 -178 0
-152 -179 0
-153 -180 0
-145 -181 0
-146 -182 0
-147 -183 0
-148 -184 0
-149 -185 0
-150 -186 0
-151 -187 0
-152 -188 0
-153 -189 0
-145 -226 0
-146 -227 0
-147 -228 0
-148 -229 0
-149 -230 0
-150 -231 0
-151 -232 0
-152 -233 0
-153 -234 0
-145 -253 0
-146 -254 0
-147 -255 0
-148 -256 0
-149 -257 0
-150 -258 0
-151 -259 0
-152 -260 0
-153 -261 0
-145 -289 0
-146 -290 0
-147 -291 0
-148 -292 0
-149 -293 0
-150 -294 0
-151 -295 0
-152 -296 0
-153 -297 0
-145 -307 0
-146 -308 0
-147 -309 0
-148 -310 0
-149 -311 0
-150 -312 0
-151 -313 0
-152 -314 0
-153 -315 0
-145 -316 0
-146 -317 0
-147 -318 0
-148 -319 0
-149 -320 0
-150 -321 0
-151 -322 0
-152 -323 0
-153 -324 0
-145 -325 0
-146 -326 0
-147 -327 0
-148 -328 0
-149 -329 0
-150 -330 0
-151 -331 0
-152 -332 0
-153 -333 0
-145 -397 0
-146 -398 0
-147 -399 0
-148 -400 0
-149 -401 0
-150 -402 0
-151 -403 0
-152 -404 0
-153 -405 0
-145 -469 0
-146 -470 0
-147 -471 0
-148 -472 0
-149 -473 0
-150 -474 0
-151 -475 0
-152 -476 0
-153 -477 0
-145 -478 0
-146 -479 0
-147 -480 0
-148 -481 0
-149 -482 0
-150 -483 0
-151 -484 0
-152 -485 0
-153 -486 0
-145 -838 0
-146 -839 0
-147 -840 0
-148 -841 0
-149 -842 0
-150 -843 0
-151 -844 0
-152 -845 0
-153 -846 0
-145 -847 0
-146 -848 0
-147 -849 0
-148 -850 0
-149 -851 0
-150 -852 0
-151 -853 0
-152 -854 0
-153 -855 0
-145 -1027 0
-146 -1028 0
-147 -1029 0
-148 -1030 0
-149 -1031 0
-150 -1032 0
-151 -1033 0
-152 -1034 0
-153 -1035 0
-145 -1108 0
-146 -1109 0
-147 -1110 0
-148 -1111 0
-149 -1112 0
-150 -1113 0
-151 -1114 0
-152 -1115 0
-153 -1116 0
-145 -1117 0
-146 -1118 0
-147 -1119 0
-148 -1120 0
-149 -1121 0
-150 -1122 0
-151 -1123 0
-152 -1124 0
-153 -1125 0
-145 -1234 0
-146 -1235 0
-147 -1236 0
-148 -1237 0
-149 -1238 0
-150 -1239 0
-151 -1240 0
-152 -1241 0
-153 -1242 0
-145 -1324 0
-146 -1325 0
-147 -1326 0
-148 -1327 0
-149 -1328 0
-150 -1329 0
-151 -1330 0
-152 -1331 0
-153 -1332 0
-145 -1333 0
-146 -1334 0
-147 -1335 0
-148 -1336 0
-149 -1337 0
-150 -1338 0
-151 -1339 0
-152 -1340 0
-153 -1341 0
-145 -1450 0
-146 -1451 0
-147 -1452 0
-148 -1453 0
-149 -1454 0
-150 -1455 0
-151 -1456 0
-152 -1457 0
-153 -1458 0
-145 -1486 0
-146 -1487 0
-147 -1488 0
-148 -1489 0
-149 -1490 0
-150 -1491 0
-151 -1492 0
-152 -1493 0
-153 -1494 0
-145 -1495 0
-146 -1496 0
-147 -1497 0
-148 -1498 0
-149 -1499 0
-150 -1500 0
-151 -1501 0
-152 -1502 0
-153 -1503 0
-145 -1558 0
-146 -1559 0
-147 -1560 0
-148 -1561 0
-149 -1562 0
-150 -1563 0
-151 -1564 0
-152 -1565 0
-153 -1566 0
-145 -1567 0
-146 -1568 0
-147 -1569 0
-148 -1570 0
-149 -1571 0
-150 -1572 0
-151 -1573 0
-152 -1574 0
-153 -1575 0
-145 -1675 0
-146 -1676 0
-147 -1677 0
-148 -1678 0
-149 -1679 0
-150 -1680 0
-151 -1681 0
-152 -1682 0
-153 -1683 0
-145 -1864 0
-146 -1865 0
-147 -1866 0
-148 -1867 0
-149 -1868 0
-150 -1869 0
-151 -1870 0
-152 -1871 0
-153 -1872 0
-145 -1873 0
-146 -1874 0
-147 -1875 0
-148 -1876 0
-149 -1877 0
-150 -1878 0
-151 -1879 0
-152 -1880 0
-153 -1881 0
-145 -1900 0
-146 -1901 0
-147 -1902 0
-148 -1903 0
-149 -1904 0
-150 -1905 0
-151 -1906 0
-152 -1907 0
-153 -1908 0
-145 -2080 0
-146 -2081 0
-147 -2082 0
-148 -2083 0
-149 -2084 0
-150 -2085 0
-151 -2086 0
-152 -2087 0
-153 -2088 0
-145 -2089 0
-146 -2090 0
-147 -2091 0
-148 -2092 0
-149 -2093 0
-150 -2094 0
-151 -2095 0
-152 -2096 0
-153 -2097 0
-145 -2116 0
-146 -2117 0
-147 -2118 0
-148 -2119 0
-149 -2120 0
-150 -2121 0
-151 -2122 0
-152 -2123 0
-153 -2124 0
-145 -2512 0
-146 -2513 0
-147 -2514 0
-148 -2515 0
-149 -2516 0
-150 -2517 0
-151 -2518 0
-152 -2519 0
-153 -2520 0
-145 -2521 0
-146 -2522 0
-147 -2523 0
-148 -2524 0
-149 -2525 0
-150 -2526 0
-151 -2527 0
-152 -2528 0
-153 -2529 0
-145 -2530 0
-146 -2531 0
-147 -2532 0
-148 -2533 0
-149 -2534 0
-150 -2535 0
-151 -2536 0
-152 -2537 0
-153 -2538 0
-145 -2539 0
-146 -2540 0
-147 -2541 0
-148 -2542 0
-149 -2543 0
-150 -2544 0
-151 -2545 0
-152 -2546 0
-153 -2547 0
-145 -2548 0
-146 -2549 0
-147 -2550 0
-148 -2551 0
-149 -2552 0
-150 -2553 0
-151 -2554 0
-152 -2555 0
-153 -2556 0
-145 -2674 0
-146 -2675 0
-147 -2676 0
-148 -2677 0
-149 -2678 0
-150 -2679 0
-151 -2680 0
-152 -2681 0
-153 -2682 0
-145 -2683 0
-146 -2684 0
-147 -2685 0
-148 -2686 0
-149 -2687 0
-150 -2688 0
-151 -2689 0
-152 -2690 0
-153 -2691 0
-145 -2692 0
-146 -2693 0
-147 -2694 0
-148 -2695 0
-149 -2696 0
-150 -2697 0
-151 -2698 0
-152 -2699 0
-153 -2700 0
-154 -190 0
-155 -191 0
-156 -192 0
-157 -193 0
-158 -194 0
-159 -195 0
-160 -196 0
-161 -197 0
-162 -198 0
-154 -208 0
-155 -209 0
-156 -210 0
-157 -211 0
-158 -212 0
-159 -213 0
-160 -214 0
-161 -215 0
-162 -216 0
-154 -235 0
-155 -236 0
-156 -237 0
-157 -238 0
-158 -239 0
-159 -240 0
-160 -241 0
-161 -242 0
-162 -243 0
-154 -262 0
-155 -263 0
-156 -264 0
-157 -265 0
-158 -266 0
-159 -267 0
-160 -268 0
-161 -269 0
-162 -270 0
-154 -280 0
-155 -281 0
-156 -282 0
-157 -283 0
-158 -284 0
-159 -285 0
-160 -286 0
-161 -287 0
-162 -288 0
-154 -307 0
-155 -308 0
-156 -309 0
-157 -310 0
-158 -311 0
-159 -312 0
-160 -313 0
-161 -314 0
-162 -315 0
-154 -343 0
-155 -344 0
-156 -345 0
-157 -346 0
-158 -347 0
-159 -348 0
-160 -349 0
-161 -350 0
-162 -351 0
-154 -352 0
-155 -353 0
-156 -354 0
-157 -355 0
-158 -356 0
-159 -357 0
-160 -358 0
-161 -359 0
-162 -360 0
-154 -397 0
-155 -398 0
-156 -399 0
-157 -400 0
-158 -401 0
-159 -402 0
-160 -403 0
-161 -404 0
-162 -405 0
-154 -487 0
-155 -488 0
-156 -489 0
-157 -490 0
-158 -491 0
-159 -492 0
-160 -493 0
-161 -494 0
-162 -495 0
-154 -505 0
-155 -506 0
-156 -507 0
-157 -508 0
-158 -509 0
-159 -510 0
-160 -511 0
-161 -512 0
-162 -513 0
-154 -874 0
-155 -875 0
-156 -876 0
-157 -877 0
-158 -878 0
-159 -879 0
-160 -880 0
-161 -881 0
-162 -882 0
-154 -892 0
-155 -893 0
-156 -894 0
-157 -895 0
-158 -896 0
-159 -897 0
-160 -898 0
-161 -899 0
-162 -900 0
-154 -1036 0
-155 -1037 0
-156 -1038 0
-157 -1039 0
-158 -1040 0
-159 -1041 0
-160 -1042 0
-161 -1043 0
-162 -1044 0
-154 -1090 0
-155 -1091 0
-156 -1092 0
-157 -1093 0
-158 -1094 0
-159 -1095 0
-160 -1096 0
-161 -1097 0
-162 -1098 0
-154 -1162 0
-155 -1163 0
-156 -1164 0
-157 -1165 0
-158 -1166 0
-159 -1167 0
-160 -1168 0
-161 -1169 0
-162 -1170 0
-154 -1243 0
-155 -1244 0
-156 -1245 0
-157 -1246 0
-158 -1247 0
-159 -1248 0
-160 -1249 0
-161 -1250 0
-162 -1251 0
-154 -1279 0
-155 -1280 0
-156 -1281 0
-157 -1282 0
-158 -1283 0
-159 -1284 0
-160 -1285 0
-161 -1286 0
-162 -1287 0
-154 -1342 0
-155 -1343 0
-156 -1344 0
-157 -1345 0
-158 -1346 0
-159 -1347 0
-160 -1348 0
-161 -1349 0
-162 -1350 0
-154 -1360 0
-155 -1361 0
-156 -1362 0
-157 -1363 0
-158 -1364 0
-159 -1365 0
-160 -1366 0
-161 -1367 0
-162 -1368 0
-154 -1387 0
-155 -1388 0
-156 -1389 0
-157 -1390 0
-158 -1391 0
-159 -1392 0
-160 -1393 0
-161 -1394 0
-162 -1395 0
-154 -1396 0
-155 -1397 0
-156 -1398 0
-157 -1399 0
-158 -1400 0
-159 -1401 0
-160 -1402 0
-161 -1403 0
-162 -1404 0
-154 -1477 0
-155 -1478 0
-156 -1479 0
-157 -1480 0
-158 -1481 0
-159 -1482 0
-160 -1483 0
-161 -1484 0
-162 -1485 0
-154 -1540 0
-155 -1541 0
-156 -1542 0
-157 -1543 0
-158 -1544 0
-159 -1545 0
-160 -1546 0
-161 -1547 0
-162 -1548 0
-154 -1639 0
-155 -1640 0
-156 -1641 0
-157 -1642 0
-158 -1643 0
-159 -1644 0
-160 -1645 0
-161 -1646 0
-162 -1647 0
-154 -1657 0
-155 -1658 0
-156 -1659 0
-157 -1660 0
-158 -1661 0
-159 -1662 0
-160 -1663 0
-161 -1664 0
-162 -1665 0
-154 -1684 0
-155 -1685 0
-156 -1686 0
-157 -1687 0
-158 -1688 0
-159 -1689 0
-160 -1690 0
-161 -1691 0
-162 -1692 0
-154 -1918 0
-155 -1919 0
-156 -1920 0
-157 -1921 0
-158 -1922 0
-159 -1923 0
-160 -1924 0
-161 -1925 0
-162 -1926 0
-154 -2098 0
-155 -2099 0
-156 -2100 0
-157 -2101 0
-158 -2102 0
-159 -2103 0
-160 -2104 0
-161 -2105 0
-162 -2106 0
-154 -2107 0
-155 -2108 0
-156 -2109 0
-157 -2110 0
-158 -2111 0
-159 -2112 0
-160 -2113 0
-161 -2114 0
-162 -2115 0
-154 -2125 0
-155 -2126 0
-156 -2127 0
-157 -2128 0
-158 -2129 0
-159 -2130 0
-160 -2131 0
-161 -2132 0
-162 -2133 0
-154 -2467 0
-155 -2468 0
-156 -2469 0
-157 -2470 0
-158 -2471 0
-159 -2472 0
-160 -2473 0
-161 -2474 0
-162 -2475 0
-154 -2494 0
-155 -2495 0
-156 -2496 0
-157 -2497 0
-158 -2498 0
-159 -2499 0
-160 -2500 0
-161 -2501 0
-162 -2502 0
-154 -2530 0
-155 -2531 0
-156 -2532 0
-157 -2533 0
-158 -2534 0
-159 -2535 0
-160 -2536 0
-161 -2537 0
-162 -2538 0
-154 -2557 0
-155 -2558 0
-156 -2559 0
-157 -2560 0
-158 -2561 0
-159 -2562 0
-160 -2563 0
-161 -2564 0
-162 -2565 0
-154 -2566 0
-155 -2567 0
-156 -2568 0
-157 -2569 0
-158 -2570 0
-159 -2571 0
-160 -2572 0
-161 -2573 0
-162 -2574 0
-154 -2674 0
-155 -2675 0
-156 -2676 0
-157 -2677 0
-158 -2678 0
-159 -2679 0
-160 -2680 0
-161 -2681 0
-162 -2682 0
-154 -2701 0
-155 -2702 0
-156 -2703 0
-157 -2704 0
-158 -2705 0
-159 -2706 0
-160 -2707 0
-161 -2708 0
-162 -2709 0
-154 -2710 0
-155 -2711 0
-156 -2712 0
-157 -2713 0
-158 -2714 0
-159 -2715 0
-160 -2716 0
-161 -2717 0
-162 -2718 0
-163 -199 0
-164 -200 0
-165 -201 0
-166 -202 0
-167 -203 0
-168 -204 0
-169 -205 0
-170 -206 0
-171 -207 0
-163 -217 0
-164 -218 0
-165 -219 0
-166 -220 0
-167 -221 0
-168 -222 0
-169 -223 0
-170 -224 0
-171 -225 0
-163 -244 0
-164 -245 0
-165 -246 0
-166 -247 0
-167 -248 0
-168 -249 0
-169 -250 0
-170 -251 0
-171 -252 0
-163 -271 0
-164 -272 0
-165 -273 0
-166 -274 0
-167 -275 0
-168 -276 0
-169 -277 0
-170 -278 0
-171 -279 0
-163 -298 0
-164 -299 0
-165 -300 0
-166 -301 0
-167 -302 0
-168 -303 0
-169 -304 0
-170 -305 0
-171 -306 0
-163 -325 0
-164 -326 0
-165 -327 0
-166 -328 0
-167 -329 0
-168 -330 0
-169 -331 0
-170 -332 0
-171 -333 0
-163 -334 0
-164 -335 0
-165 -336 0
-166 -337 0
-167 -338 0
-168 -339 0
-169 -340 0
-170 -341 0
-171 -342 0
-163 -352 0
-164 -353 0
-165 -354 0
-166 -355 0
-167 -356 0
-168 -357 0
-169 -358 0
-170 -359 0
-171 -360 0
-163 -397 0
-164 -398 0
-165 -399 0
-166 -400 0
-167 -401 0
-168 -402 0
-169 -403 0
-170 -404 0
-171 -405 0
-163 -496 0
-164 -497 0
-165 -498 0
-166 -499 0
-167 -500 0
-168 -501 0
-169 -502 0
-170 -503 0
-171 -504 0
-163 -514 0
-164 -515 0
-165 -516 0
-166 -517 0
-167 -518 0
-168 -519 0
-169 -520 0
-170 -521 0
-171 -522 0
-163 -883 0
-164 -884 0
-165 -885 0
-166 -886 0
-167 -887 0
-168 -888 0
-169 -889 0
-170 -890 0
-171 -891 0
-163 -901 0
-164 -902 0
-165 -903 0
-166 -904 0
-167 -905 0
-168 -906 0
-169 -907 0
-170 -908 0
-171 -909 0
-163 -1063 0
-164 -1064 0
-165 -1065 0
-166 -1066 0
-167 -1067 0
-168 -1068 0
-169 -1069 0
-170 -1070 0
-171 -1071 0
-163 -1126 0
-164 -1127 0
-165 -1128 0
-166 -1129 0
-167 -1130 0
-168 -1131 0
-169 -1132 0
-170 -1133 0
-171 -1134 0
-163 -1153 0
-164 -1154 0
-165 -1155 0
-166 -1156 0
-167 -1157 0
-168 -1158 0
-169 -1159 0
-170 -1160 0
-171 -1161 0
-163 -1180 0
-164 -1181 0
-165 -1182 0
-166 -1183 0
-167 -1184 0
-168 -1185 0
-169 -1186 0
-170 -1187 0
-171 -1188 0
-163 -1189 0
-164 -1190 0
-165 -1191 0
-166 -1192 0
-167 -1193 0
-168 -1194 0
-169 -1195 0
-170 -1196 0
-171 -1197 0
-163 -1261 0
-164 -1262 0
-165 -1263 0
-166 -1264 0
-167 -1265 0
-168 -1266 0
-169 -1267 0
-170 -1268 0
-171 -1269 0
-163 -1306 0
-164 -1307 0
-165 -1308 0
-166 -1309 0
-167 -1310 0
-168 -1311 0
-169 -1312 0
-170 -1313 0
-171 -1314 0
-163 -1369 0
-164 -1370 0
-165 -1371 0
-166 -1372 0
-167 -1373 0
-168 -1374 0
-169 -1375 0
-170 -1376 0
-171 -1377 0
-163 -1432 0
-164 -1433 0
-165 -1434 0
-166 -1435 0
-167 -1436 0
-168 -1437 0
-169 -1438 0
-170 -1439 0
-171 -1440 0
-163 -1468 0
-164 -1469 0
-165 -1470 0
-166 -1471 0
-167 -1472 0
-168 -1473 0
-169 -1474 0
-170 -1475 0
-171 -1476 0
-163 -1549 0
-164 -1550 0
-165 -1551 0
-166 -1552 0
-167 -1553 0
-168 -1554 0
-169 -1555 0
-170 -1556 0
-171 -1557 0
-163 -1648 0
-164 -1649 0
-165 -1650 0
-166 -1651 0
-167 -1652 0
-168 -1653 0
-169 -1654 0
-170 -1655 0
-171 -1656 0
-163 -1666 0
-164 -1667 0
-165 -1668 0
-166 -1669 0
-167 -1670 0
-168 -1671 0
-169 -1672 0
-170 -1673 0
-171 -1674 0
-163 -1693 0
-164 -1694 0
-165 -1695 0
-166 -1696 0
-167 -1697 0
-168 -1698 0
-169 -1699 0
-170 -1700 0
-171 -1701 0
-163 -1882 0
-164 -1883 0
-165 -1884 0
-166 -1885 0
-167 -1886 0
-168 -1887 0
-169 -1888 0
-170 -1889 0
-171 -1890 0
-163 -1891 0
-164 -1892 0
-165 -1893 0
-166 -1894 0
-167 -1895 0
-168 -1896 0
-169 -1897 0
-170 -1898 0
-171 -1899 0
-163 -1909 0
-164 -1910 0
-165 -1911 0
-166 -1912 0
-167 -1913 0
-168 -1914 0
-169 -1915 0
-170 -1916 0
-171 -1917 0
-163 -2134 0
-164 -2135 0
-165 -2136 0
-166 -2137 0
-167 -2138 0
-168 -2139 0
-169 -2140 0
-170 -2141 0
-171 -2142 0
-163 -2476 0
-164 -2477 0
-165 -2478 0
-166 -2479 0
-167 -2480 0
-168 -2481 0
-169 -2482 0
-170 -2483 0
-171 -2484 0
-163 -2494 0
-164 -2495 0
-165 -2496 0
-166 -2497 0
-167 -2498 0
-168 -2499 0
-169 -2500 0
-170 -2501 0
-171 -2502 0
-163 -2521 0
-164 -2522 0
-165 -2523 0
-166 -2524 0
-167 -2525 0
-168 -2526 0
-169 -2527 0
-170 -2528 0
-171 -2529 0
-163 -2611 0
-164 -2612 0
-165 -2613 0
-166 -2614 0
-167 -2615 0
-168 -2616 0
-169 -2617 0
-170 -2618 0
-171 -2619 0
-163 -2620 0
-164 -2621 0
-165 -2622 0
-166 -2623 0
-167 -2624 0
-168 -2625 0
-169 -2626 0
-170 -2627 0
-171 -2628 0
-163 -2674 0
-164 -2675 0
-165 -2676 0
-166 -2677 0
-167 -2678 0
-168 -2679 0
-169 -2680 0
-170 -2681 0
-171 -2682 0
-163 -2719 0
-164 -2720 0
-165 -2721 0
-166 -2722 0
-167 -2723 0
-168 -2724 0
-169 -2725 0
-170 -2726 0
-171 -2727 0
-163 -2728 0
-164 -2729 0
-165 -2730 0
-166 -2731 0
-167 -2732 0
-168 -2733 0
-169 -2734 0
-170 -2735 0
-171 -2736 0
-172 -181 0
-173 -182 0
-174 -183 0
-175 -184 0
-176 -185 0
-177 -186 0
-178 -187 0
-179 -188 0
-180 -189 0
-172 -226 0
-173 -227 0
-174 -228 0
-175 -229 0
-176 -230 0
-177 -231 0
-178 -232 0
-179 -233 0
-180 -234 0
-172 -253 0
-173 -254 0
-174 -255 0
-175 -256 0
-176 -257 0
-177 -258 0
-178 -259 0
-179 -260 0
-180 -261 0
-172 -289 0
-173 -290 0
-174 -291 0
-175 -292 0
-176 -293 0
-177 -294 0
-178 -295 0
-179 -296 0
-180 -297 0
-172 -307 0
-173 -308 0
-174 -309 0
-175 -310 0
-176 -311 0
-177 -312 0
-178 -313 0
-179 -314 0
-180 -315 0
-172 -370 0
-173 -371 0
-174 -372 0
-175 -373 0
-176 -374 0
-177 -375 0
-178 -376 0
-179 -377 0
-180 -378 0
-172 -406 0
-173 -407 0
-174 -408 0
-175 -409 0
-176 -410 0
-177 -411 0
-178 -412 0
-179 -413 0
-180 -414 0
-172 -424 0
-173 -425 0
-174 -426 0
-175 -427 0
-176 -428 0
-177 -429 0
-178 -430 0
-179 -431 0
-180 -432 0
-172 -469 0
-173 -470 0
-174 -471 0
-175 -472 0
-176 -473 0
-177 -474 0
-178 -475 0
-179 -476 0
-180 -477 0
-172 -550 0
-173 -551 0
-174 -552 0
-175 -553 0
-176 -554 0
-177 -555 0
-178 -556 0
-179 -557 0
-180 -558 0
-172 -586 0
-173 -587 0
-174 -588 0
-175 -589 0
-176 -590 0
-177 -591 0
-178 -592 0
-179 -593 0
-180 -594 0
-172 -613 0
-173 -614 0
-174 -615 0
-175 -616 0
-176 -617 0
-177 -618 0
-178 -619 0
-179 -620 0
-180 -621 0
-172 -676 0
-173 -677 0
-174 -678 0
-175 -679 0
-176 -680 0
-177 -681 0
-178 -682 0
-179 -683 0
-180 -684 0
-172 -811 0
-173 -812 0
-174 -813 0
-175 -814 0
-176 -815 0
-177 -816 0
-178 -817 0
-179 -818 0
-180 -819 0
-172 -910 0
-173 -911 0
-174 -912 0
-175 -913 0
-176 -914 0
-177 -915 0
-178 -916 0
-179 -917 0
-180 -918 0
-172 -946 0
-173 -947 0
-174 -948 0
-175 -949 0
-176 -950 0
-177 -951 0
-178 -952 0
-179 -953 0
-180 -954 0
-172 -1099 0
-173 -1100 0
-174 -1101 0
-175 -1102 0
-176 -1103 0
-177 -1104 0
-178 -1105 0
-179 -1106 0
-180 -1107 0
-172 -1108 0
-173 -1109 0
-174 -1110 0
-175 -1111 0
-176 -1112 0
-177 -1113 0
-178 -1114 0
-179 -1115 0
-180 -1116 0
-172 -1198 0
-173 -1199 0
-174 -1200 0
-175 -1201 0
-176 -1202 0
-177 -1203 0
-178 -1204 0
-179 -1205 0
-180 -1206 0
-172 -1621 0
-173 -1622 0
-174 -1623 0
-175 -1624 0
-176 -1625 0
-177 -1626 0
-178 -1627 0
-179 -1628 0
-180 -1629 0
-172 -1675 0
-173 -1676 0
-174 -1677 0
-175 -1678 0
-176 -1679 0
-177 -1680 0
-178 -1681 0
-179 -1682 0
-180 -1683 0
-172 -1702 0
-173 -1703 0
-174 -1704 0
-175 -1705 0
-176 -1706 0
-177 -1707 0
-178 -1708 0
-179 -1709 0
-180 -1710 0
-172 -1729 0
-173 -1730 0
-174 -1731 0
-175 -1732 0
-176 -1733 0
-177 -1734 0
-178 -1735 0
-179 -1736 0
-180 -1737 0
-172 -1738 0
-173 -1739 0
-174 -1740 0
-175 -1741 0
-176 -1742 0
-177 -1743 0
-178 -1744 0
-179 -1745 0
-180 -1746 0
-172 -1765 0
-173 -1766 0
-174 -1767 0
-175 -1768 0
-176 -1769 0
-177 -1770 0
-178 -1771 0
-179 -1772 0
-180 -1773 0
-172 -1819 0
-173 -1820 0
-174 -1821 0
-175 -1822 0
-176 -1823 0
-177 -1824 0
-178 -1825 0
-179 -1826 0
-180 -1827 0
-172 -1828 0
-173 -1829 0
-174 -1830 0
-175 -1831 0
-176 -1832 0
-177 -1833 0
-178 -1834 0
-179 -1835 0
-180 -1836 0
-172 -1900 0
-173 -1901 0
-174 -1902 0
-175 -1903 0
-176 -1904 0
-177 -1905 0
-178 -1906 0
-179 -1907 0
-180 -1908 0
-172 -2089 0
-173 -2090 0
-174 -2091 0
-175 -2092 0
-176 -2093 0
-177 -2094 0
-178 -2095 0
-179 -2096 0
-180 -2097 0
-172 -2305 0
-173 -2306 0
-174 -2307 0
-175 -2308 0
-176 -2309 0
-177 -2310 0
-178 -2311 0
-179 -2312 0
-180 -2313 0
-172 -2323 0
-173 -2324 0
-174 -2325 0
-175 -2326 0
-176 -2327 0
-177 -2328 0
-178 -2329 0
-179 -2330 0
-180 -2331 0
-172 -2332 0
-173 -2333 0
-174 -2334 0
-175 -2335 0
-176 -2336 0
-177 -2337 0
-178 -2338 0
-179 -2339 0
-180 -2340 0
-172 -2503 0
-173 -2504 0
-174 -2505 0
-175 -2506 0
-176 -2507 0
-177 -2508 0
-178 -2509 0
-179 -2510 0
-180 -2511 0
-172 -2512 0
-173 -2513 0
-174 -2514 0
-175 -2515 0
-176 -2516 0
-177 -2517 0
-178 -2518 0
-179 -2519 0
-180 -2520 0
-172 -2593 0
-173 -2594 0
-174 -2595 0
-175 -2596 0
-176 -2597 0
-177 -2598 0
-178 -2599 0
-179 -2600 0
-180 -2601 0
-172 -2737 0
-173 -2738 0
-174 -2739 0
-175 -2740 0
-176 -2741 0
-177 -2742 0
-178 -2743 0
-179 -2744 0
-180 -2745 0
-172 -2746 0
-173 -2747 0
-174 -2748 0
-175 -2749 0
-176 -2750 0
-177 -2751 0
-178 -2752 0
-179 -2753 0
-180 -2754 0
-172 -2755 0
-173 -2756 0
-174 -2757 0
-175 -2758 0
-176 -2759 0
-177 -2760 0
-178 -2761 0
-179 -2762 0
-180 -2763 0
-181 -226 0
-182 -227 0
-183 -228 0
-184 -229 0
-185 -230 0
-186 -231 0
-187 -232 0
-188 -233 0
-189 -234 0
-181 -253 0
-182 -254 0
-183 -255 0
-184 -256 0
-185 -257 0
-186 -258 0
-187 -259 0
-188 -260 0
-189 -261 0
-181 -316 0
-182 -317 0
-183 -318 0
-184 -319 0
-185 -320 0
-186 -321 0
-187 -322 0
-188 -323 0
-189 -324 0
-181 -325 0
-182 -326 0
-183 -327 0
-184 -328 0
-185 -329 0
-186 -330 0
-187 -331 0
-188 -332 0
-189 -333 0
-181 -370 0
-182 -371 0
-183 -372 0
-184 -373 0
-185 -374 0
-186 -375 0
-187 -376 0
-188 -377 0
-189 -378 0
-181 -415 0
-182 -416 0
-183 -417 0
-184 -418 0
-185 -419 0
-186 -420 0
-187 -421 0
-188 -422 0
-189 -423 0
-181 -433 0
-182 -434 0
-183 -435 0
-184 -436 0
-185 -437 0
-186 -438 0
-187 -439 0
-188 -440 0
-189 -441 0
-181 -478 0
-182 -479 0
-183 -480 0
-184 -481 0
-185 -482 0
-186 -483 0
-187 -484 0
-188 -485 0
-189 -486 0
-181 -550 0
-182 -551 0
-183 -552 0
-184 -553 0
-185 -554 0
-186 -555 0
-187 -556 0
-188 -557 0
-189 -558 0
-181 -595 0
-182 -596 0
-183 -597 0
-184 -598 0
-185 -599 0
-186 -600 0
-187 -601 0
-188 -602 0
-189 -603 0
-181 -622 0
-182 -623 0
-183 -624 0
-184 -625 0
-185 -626 0
-186 -627 0
-187 -628 0
-188 -629 0
-189 -630 0
-181 -667 0
-182 -668 0
-183 -669 0
-184 -670 0
-185 -671 0
-186 -672 0
-187 -673 0
-188 -674 0
-189 -675 0
-181 -802 0
-182 -803 0
-183 -804 0
-184 -805 0
-185 -806 0
-186 -807 0
-187 -808 0
-188 -809 0
-189 -810 0
-181 -928 0
-182 -929 0
-183 -930 0
-184 -931 0
-185 -932 0
-186 -933 0
-187 -934 0
-188 -935 0
-189 -936 0
-181 -955 0
-182 -956 0
-183 -957 0
-184 -958 0
-185 -959 0
-186 -960 0
-187 -961 0
-188 -962 0
-189 -963 0
-181 -1315 0
-182 -1316 0
-183 -1317 0
-184 -1318 0
-185 -1319 0
-186 -1320 0
-187 -1321 0
-188 -1322 0
-189 -1323 0
-181 -1324 0
-182 -1325 0
-183 -1326 0
-184 -1327 0
-185 -1328 0
-186 -1329 0
-187 -1330 0
-188 -1331 0
-189 -1332 0
-181 -1405 0
-182 -1406 0
-183 -1407 0
-184 -1408 0
-185 -1409 0
-186 -1410 0
-187 -1411 0
-188 -1412 0
-189 -1413 0
-181 -1630 0
-182 -1631 0
-183 -1632 0
-184 -1633 0
-185 -1634 0
-186 -1635 0
-187 -1636 0
-188 -1637 0
-189 -1638 0
-181 -1675 0
-182 -1676 0
-183 -1677 0
-184 -1678 0
-185 -1679 0
-186 -1680 0
-187 -1681 0
-188 -1682 0
-189 -1683 0
-181 -1702 0
-182 -1703 0
-183 -1704 0
-184 -1705 0
-185 -1706 0
-186 -1707 0
-187 -1708 0
-188 -1709 0
-189 -1710 0
-181 -1729 0
-182 -1730 0
-183 -1731 0
-184 -1732 0
-185 -1733 0
-186 -1734 0
-187 -1735 0
-188 -1736 0
-189 -1737 0
-181 -1747 0
-182 -1748 0
-183 -1749 0
-184 -1750 0
-185 -1751 0
-186 -1752 0
-187 -1753 0
-188 -1754 0
-189 -1755 0
-181 -1756 0
-182 -1757 0
-183 -1758 0
-184 -1759 0
-185 -1760 0
-186 -1761 0
-187 -1762 0
-188 -1763 0
-189 -1764 0
-181 -1810 0
-182 -1811 0
-183 -1812 0
-184 -1813 0
-185 -1814 0
-186 -1815 0
-187 -1816 0
-188 -1817 0
-189 -1818 0
-181 -1873 0
-182 -1874 0
-183 -1875 0
-184 -1876 0
-185 -1877 0
-186 -1878 0
-187 -1879 0
-188 -1880 0
-189 -1881 0
-181 -2044 0
-182 -2045 0
-183 -2046 0
-184 -2047 0
-185 -2048 0
-186 -2049 0
-187 -2050 0
-188 -2051 0
-189 -2052 0
-181 -2116 0
-182 -2117 0
-183 -2118 0
-184 -2119 0
-185 -2120 0
-186 -2121 0
-187 -2122 0
-188 -2123 0
-189 -2124 0
-181 -2260 0
-182 -2261 0
-183 -2262 0
-184 -2263 0
-185 -2264 0
-186 -2265 0
-187 -2266 0
-188 -2267 0
-189 -2268 0
-181 -2368 0
-182 -2369 0
-183 -2370 0
-184 -2371 0
-185 -2372 0
-186 -2373 0
-187 -2374 0
-188 -2375 0
-189 -2376 0
-181 -2386 0
-182 -2387 0
-183 -2388 0
-184 -2389 0
-185 -2390 0
-186 -2391 0
-187 -2392 0
-188 -2393 0
-189 -2394 0
-181 -2503 0
-182 -2504 0
-183 -2505 0
-184 -2506 0
-185 -2507 0
-186 -2508 0
-187 -2509 0
-188 -2510 0
-189 -2511 0
-181 -2512 0
-182 -2513 0
-183 -2514 0
-184 -2515 0
-185 -2516 0
-186 -2517 0
-187 -2518 0
-188 -2519 0
-189 -2520 0
-181 -2638 0
-182 -2639 0
-183 -2640 0
-184 -2641 0
-185 -2642 0
-186 -2643 0
-187 -2644 0
-188 -2645 0
-189 -2646 0
-181 -2764 0
-182 -2765 0
-183 -2766 0
-184 -2767 0
-185 -2768 0
-186 -2769 0
-187 -2770 0
-188 -2771 0
-189 -2772 0
-181 -2773 0
-182 -2774 0
-183 -2775 0
-184 -2776 0
-185 -2777 0
-186 -2778 0
-187 -2779 0
-188 -2780 0
-189 -2781 0
-181 -2782 0
-182 -2783 0
-183 -2784 0
-184 -2785 0
-185 -2786 0
-186 -2787 0
-187 -2788 0
-188 -2789 0
-189 -2790 0
-190 -208 0
-191 -209 0
-192 -210 0
-193 -211 0
-194 -212 0
-195 -213 0
-196 -214 0
-197 -215 0
-198 -216 0
-190 -235 0
-191 -236 0
-192 -237 0
-193 -238 0
-194 -239 0
-195 -240 0
-196 -241 0
-197 -242 0
-198 -243 0
-190 -262 0
-191 -263 0
-192 -264 0
-193 -265 0
-194 -266 0
-195 -267 0
-196 -268 0
-197 -269 0
-198 -270 0
-190 -280 0
-191 -281 0
-192 -282 0
-193 -283 0
-194 -284 0
-195 -285 0
-196 -286 0
-197 -287 0
-198 -288 0
-190 -307 0
-191 -308 0
-192 -309 0
-193 -310 0
-194 -311 0
-195 -312 0
-196 -313 0
-197 -314 0
-198 -315 0
-190 -379 0
-191 -380 0
-192 -381 0
-193 -382 0
-194 -383 0
-195 -384 0
-196 -385 0
-197 -386 0
-198 -387 0
-190 -406 0
-191 -407 0
-192 -408 0
-193 -409 0
-194 -410 0
-195 -411 0
-196 -412 0
-197 -413 0
-198 -414 0
-190 -424 0
-191 -425 0
-192 -426 0
-193 -427 0
-194 -428 0
-195 -429 0
-196 -430 0
-197 -431 0
-198 -432 0
-190 -487 0
-191 -488 0
-192 -489 0
-193 -490 0
-194 -491 0
-195 -492 0
-196 -493 0
-197 -494 0
-198 -495 0
-190 -559 0
-191 -560 0
-192 -561 0
-193 -562 0
-194 -563 0
-195 -564 0
-196 -565 0
-197 -566 0
-198 -567 0
-190 -586 0
-191 -587 0
-192 -588 0
-193 -589 0
-194 -590 0
-195 -591 0
-196 -592 0
-197 -593 0
-198 -594 0
-190 -631 0
-191 -632 0
-192 -633 0
-193 -634 0
-194 -635 0
-195 -636 0
-196 -637 0
-197 -638 0
-198 -639 0
-190 -703 0
-191 -704 0
-192 -705 0
-193 -706 0
-194 -707 0
-195 -708 0
-196 -709 0
-197 -710 0
-198 -711 0
-190 -856 0
-191 -857 0
-192 -858 0
-193 -859 0
-194 -860 0
-195 -861 0
-196 -862 0
-197 -863 0
-198 -864 0
-190 -910 0
-191 -911 0
-192 -912 0
-193 -913 0
-194 -914 0
-195 -915 0
-196 -916 0
-197 -917 0
-198 -918 0
-190 -919 0
-191 -920 0
-192 -921 0
-193 -922 0
-194 -923 0
-195 -924 0
-196 -925 0
-197 -926 0
-198 -927 0
-190 -1081 0
-191 -1082 0
-192 -1083 0
-193 -1084 0
-194 -1085 0
-195 -1086 0
-196 -1087 0
-197 -1088 0
-198 -1089 0
-190 -1162 0
-191 -1163 0
-192 -1164 0
-193 -1165 0
-194 -1166 0
-195 -1167 0
-196 -1168 0
-197 -1169 0
-198 -1170 0
-190 -1207 0
-191 -1208 0
-192 -1209 0
-193 -1210 0
-194 -1211 0
-195 -1212 0
-196 -1213 0
-197 -1214 0
-198 -1215 0
-190 -1603 0
-191 -1604 0
-192 -1605 0
-193 -1606 0
-194 -1607 0
-195 -1608 0
-196 -1609 0
-197 -1610 0
-198 -1611 0
-190 -1684 0
-191 -1685 0
-192 -1686 0
-193 -1687 0
-194 -1688 0
-195 -1689 0
-196 -1690 0
-197 -1691 0
-198 -1692 0
-190 -1846 0
-191 -1847 0
-192 -1848 0
-193 -1849 0
-194 -1850 0
-195 -1851 0
-196 -1852 0
-197 -1853 0
-198 -1854 0
-190 -1918 0
-191 -1919 0
-192 -1920 0
-193 -1921 0
-194 -1922 0
-195 -1923 0
-196 -1924 0
-197 -1925 0
-198 -1926 0
-190 -1927 0
-191 -1928 0
-192 -1929 0
-193 -1930 0
-194 -1931 0
-195 -1932 0
-196 -1933 0
-197 -1934 0
-198 -1935 0
-190 -1945 0
-191 -1946 0
-192 -1947 0
-193 -1948 0
-194 -1949 0
-195 -1950 0
-196 -1951 0
-197 -1952 0
-198 -1953 0
-190 -1963 0
-191 -1964 0
-192 -1965 0
-193 -1966 0
-194 -1967 0
-195 -1968 0
-196 -1969 0
-197 -1970 0
-198 -1971 0
-190 -1990 0
-191 -1991 0
-192 -1992 0
-193 -1993 0
-194 -1994 0
-195 -1995 0
-196 -1996 0
-197 -1997 0
-198 -1998 0
-190 -2035 0
-191 -2036 0
-192 -2037 0
-193 -2038 0
-194 -2039 0
-195 -2040 0
-196 -2041 0
-197 -2042 0
-198 -2043 0
-190 -2107 0
-191 -2108 0
-192 -2109 0
-193 -2110 0
-194 -2111 0
-195 -2112 0
-196 -2113 0
-197 -2114 0
-198 -2115 0
-190 -2305 0
-191 -2306 0
-192 -2307 0
-193 -2308 0
-194 -2309 0
-195 -2310 0
-196 -2311 0
-197 -2312 0
-198 -2313 0
-190 -2314 0
-191 -2315 0
-192 -2316 0
-193 -2317 0
-194 -2318 0
-195 -2319 0
-196 -2320 0
-197 -2321 0
-198 -2322 0
-190 -2395 0
-191 -2396 0
-192 -2397 0
-193 -2398 0
-194 -2399 0
-195 -2400 0
-196 -2401 0
-197 -2402 0
-198 -2403 0
-190 -2449 0
-191 -2450 0
-192 -2451 0
-193 -2452 0
-194 -2453 0
-195 -2454 0
-196 -2455 0
-197 -2456 0
-198 -2457 0
-190 -2467 0
-191 -2468 0
-192 -2469 0
-193 -2470 0
-194 -2471 0
-195 -2472 0
-196 -2473 0
-197 -2474 0
-198 -2475 0
-190 -2602 0
-191 -2603 0
-192 -2604 0
-193 -2605 0
-194 -2606 0
-195 -2607 0
-196 -2608 0
-197 -2609 0
-198 -2610 0
-190 -2791 0
-191 -2792 0
-192 -2793 0
-193 -2794 0
-194 -2795 0
-195 -2796 0
-196 -2797 0
-197 -2798 0
-198 -2799 0
-190 -2800 0
-191 -2801 0
-192 -2802 0
-193 -2803 0
-194 -2804 0
-195 -2805 0
-196 -2806 0
-197 -2807 0
-198 -2808 0
-190 -2809 0
-191 -2810 0
-192 -2811 0
-193 -2812 0
-194 -2813 0
-195 -2814 0
-196 -2815 0
-197 -2816 0
-198 -2817 0
-199 -217 0
-200 -218 0
-201 -219 0
-202 -220 0
-203 -221 0
-204 -222 0
-205 -223 0
-206 -224 0
-207 -225 0
-199 -244 0
-200 -245 0
-201 -246 0
-202 -247 0
-203 -248 0
-204 -249 0
-205 -250 0
-206 -251 0
-207 -252 0
-199 -253 0
-200 -254 0
-201 -255 0
-202 -256 0
-203 -257 0
-204 -258 0
-205 -259 0
-206 -260 0
-207 -261 0
-199 -271 0
-200 -272 0
-201 -273 0
-202 -274 0
-203 -275 0
-204 -276 0
-205 -277 0
-206 -278 0
-207 -279 0
-199 -280 0
-200 -281 0
-201 -282 0
-202 -283 0
-203 -284 0
-204 -285 0
-205 -286 0
-206 -287 0
-207 -288 0
-199 -307 0
-200 -308 0
-201 -309 0
-202 -310 0
-203 -311 0
-204 -312 0
-205 -313 0
-206 -314 0
-207 -315 0
-199 -334 0
-200 -335 0
-201 -336 0
-202 -337 0
-203 -338 0
-204 -339 0
-205 -340 0
-206 -341 0
-207 -342 0
-199 -361 0
-200 -362 0
-201 -363 0
-202 -364 0
-203 -365 0
-204 -366 0
-205 -367 0
-206 -368 0
-207 -369 0
-199 -370 0
-200 -371 0
-201 -372 0
-202 -373 0
-203 -374 0
-204 -375 0
-205 -376 0
-206 -377 0
-207 -378 0
-199 -379 0
-200 -380 0
-201 -381 0
-202 -382 0
-203 -383 0
-204 -384 0
-205 -385 0
-206 -386 0
-207 -387 0
-199 -406 0
-200 -407 0
-201 -408 0
-202 -409 0
-203 -410 0
-204 -411 0
-205 -412 0
-206 -413 0
-207 -414 0
-199 -433 0
-200 -434 0
-201 -435 0
-202 -436 0
-203 -437 0
-204 -438 0
-205 -439 0
-206 -440 0
-207 -441 0
-199 -451 0
-200 -452 0
-201 -453 0
-202 -454 0
-203 -455 0
-204 -456 0
-205 -457 0
-206 -458 0
-207 -459 0
-199 -460 0
-200 -461 0
-201 -462 0
-202 -463 0
-203 -464 0
-204 -465 0
-205 -466 0
-206 -467 0
-207 -468 0
-199 -469 0
-200 -470 0
-201 -471 0
-202 -472 0
-203 -473 0
-204 -474 0
-205 -475 0
-206 -476 0
-207 -477 0
-199 -487 0
-200 -488 0
-201 -489 0
-202 -490 0
-203 -491 0
-204 -492 0
-205 -493 0
-206 -494 0
-207 -495 0
-199 -523 0
-200 -524 0
-201 -525 0
-202 -526 0
-203 -527 0
-204 -528 0
-205 -529 0
-206 -530 0
-207 -531 0
-199 -532 0
-200 -533 0
-201 -534 0
-202 -535 0
-203 -536 0
-204 -537 0
-205 -538 0
-206 -539 0
-207 -540 0
-199 -568 0
-200 -569 0
-201 -570 0
-202 -571 0
-203 -572 0
-204 -573 0
-205 -574 0
-206 -575 0
-207 -576 0
-199 -586 0
-200 -587 0
-201 -588 0
-202 -589 0
-203 -590 0
-204 -591 0
-205 -592 0
-206 -593 0
-207 -594 0
-199 -613 0
-200 -614 0
-201 -615 0
-202 -616 0
-203 -617 0
-204 -618 0
-205 -619 0
-206 -620 0
-207 -621 0
-199 -631 0
-200 -632 0
-201 -633 0
-202 -634 0
-203 -635 0
-204 -636 0
-205 -637 0
-206 -638 0
-207 -639 0
-199 -667 0
-200 -668 0
-201 -669 0
-202 -670 0
-203 -671 0
-204 -672 0
-205 -673 0
-206 -674 0
-207 -675 0
-199 -685 0
-200 -686 0
-201 -687 0
-202 -688 0
-203 -689 0
-204 -690 0
-205 -691 0
-206 -692 0
-207 -693 0
-199 -802 0
-200 -803 0
-201 -804 0
-202 -805 0
-203 -806 0
-204 -807 0
-205 -808 0
-206 -809 0
-207 -810 0
-199 -820 0
-200 -821 0
-201 -822 0
-202 -823 0
-203 -824 0
-204 -825 0
-205 -826 0
-206 -827 0
-207 -828 0
-199 -1018 0
-200 -1019 0
-201 -1020 0
-202 -1021 0
-203 -1022 0
-204 -1023 0
-205 -1024 0
-206 -1025 0
-207 -1026 0
-199 -1081 0
-200 -1082 0
-201 -1083 0
-202 -1084 0
-203 -1085 0
-204 -1086 0
-205 -1087 0
-206 -1088 0
-207 -1089 0
-199 -1099 0
-200 -1100 0
-201 -1101 0
-202 -1102 0
-203 -1103 0
-204 -1104 0
-205 -1105 0
-206 -1106 0
-207 -1107 0
-199 -1180 0
-200 -1181 0
-201 -1182 0
-202 -1183 0
-203 -1184 0
-204 -1185 0
-205 -1186 0
-206 -1187 0
-207 -1188 0
-199 -1189 0
-200 -1190 0
-201 -1191 0
-202 -1192 0
-203 -1193 0
-204 -1194 0
-205 -1195 0
-206 -1196 0
-207 -1197 0
-199 -1270 0
-200 -1271 0
-201 -1272 0
-202 -1273 0
-203 -1274 0
-204 -1275 0
-205 -1276 0
-206 -1277 0
-207 -1278 0
-199 -1342 0
-200 -1343 0
-201 -1344 0
-202 -1345 0
-203 -1346 0
-204 -1347 0
-205 -1348 0
-206 -1349 0
-207 -1350 0
-199 -1378 0
-200 -1379 0
-201 -1380 0
-202 -1381 0
-203 -1382 0
-204 -1383 0
-205 -1384 0
-206 -1385 0
-207 -1386 0
-199 -1486 0
-200 -1487 0
-201 -1488 0
-202 -1489 0
-203 -1490 0
-204 -1491 0
-205 -1492 0
-206 -1493 0
-207 -1494 0
-199 -1513 0
-200 -1514 0
-201 -1515 0
-202 -1516 0
-203 -1517 0
-204 -1518 0
-205 -1519 0
-206 -1520 0
-207 -1521 0
-199 -1621 0
-200 -1622 0
-201 -1623 0
-202 -1624 0
-203 -1625 0
-204 -1626 0
-205 -1627 0
-206 -1628 0
-207 -1629 0
-199 -1639 0
-200 -1640 0
-201 -1641 0
-202 -1642 0
-203 -1643 0
-204 -1644 0
-205 -1645 0
-206 -1646 0
-207 -1647 0
-199 -1783 0
-200 -1784 0
-201 -1785 0
-202 -1786 0
-203 -1787 0
-204 -1788 0
-205 -1789 0
-206 -1790 0
-207 -1791 0
-199 -1846 0
-200 -1847 0
-201 -1848 0
-202 -1849 0
-203 -1850 0
-204 -1851 0
-205 -1852 0
-206 -1853 0
-207 -1854 0
-199 -1864 0
-200 -1865 0
-201 -1866 0
-202 -1867 0
-203 -1868 0
-204 -1869 0
-205 -1870 0
-206 -1871 0
-207 -1872 0
-199 -2008 0
-200 -2009 0
-201 -2010 0
-202 -2011 0
-203 -2012 0
-204 -2013 0
-205 -2014 0
-206 -2015 0
-207 -2016 0
-199 -2152 0
-200 -2153 0
-201 -2154 0
-202 -2155 0
-203 -2156 0
-204 -2157 0
-205 -2158 0
-206 -2159 0
-207 -2160 0
-199 -2476 0
-200 -2477 0
-201 -2478 0
-202 -2479 0
-203 -2480 0
-204 -2481 0
-205 -2482 0
-206 -2483 0
-207 -2484 0
-199 -2539 0
-200 -2540 0
-201 -2541 0
-202 -2542 0
-203 -2543 0
-204 -2544 0
-205 -2545 0
-206 -2546 0
-207 -2547 0
-199 -2557 0
-200 -2558 0
-201 -2559 0
-202 -2560 0
-203 -2561 0
-204 -2562 0
-205 -2563 0
-206 -2564 0
-207 -2565 0
-199 -2674 0
-200 -2675 0
-201 -2676 0
-202 -2677 0
-203 -2678 0
-204 -2679 0
-205 -2680 0
-206 -2681 0
-207 -2682 0
-199 -2737 0
-200 -2738 0
-201 -2739 0
-202 -2740 0
-203 -2741 0
-204 -2742 0
-205 -2743 0
-206 -2744 0
-207 -2745 0
-199 -2773 0
-200 -2774 0
-201 -2775 0
-202 -2776 0
-203 -2777 0
-204 -2778 0
-205 -2779 0
-206 -2780 0
-207 -2781 0
-199 -2791 0
-200 -2792 0
-201 -2793 0
-202 -2794 0
-203 -2795 0
-204 -2796 0
-205 -2797 0
-206 -2798 0
-207 -2799 0
-199 -2818 0
-200 -2819 0
-201 -2820 0
-202 -2821 0
-203 -2822 0
-204 -2823 0
-205 -2824 0
-206 -2825 0
-207 -2826 0
-199 -2827 0
-200 -2828 0
-201 -2829 0
-202 -2830 0
-203 -2831 0
-204 -2832 0
-205 -2833 0
-206 -2834 0
-207 -2835 0
-199 -2836 0
-200 -2837 0
-201 -2838 0
-202 -2839 0
-203 -2840 0
-204 -2841 0
-205 -2842 0
-206 -2843 0
-207 -2844 0
-208 -235 0
-209 -236 0
-210 -237 0
-211 -238 0
-212 -239 0
-213 -240 0
-214 -241 0
-215 -242 0
-216 -243 0
-208 -253 0
-209 -254 0
-210 -255 0
-211 -256 0
-212 -257 0
-213 -258 0
-214 -259 0
-215 -260 0
-216 -261 0
-208 -262 0
-209 -263 0
-210 -264 0
-211 -265 0
-212 -266 0
-213 -267 0
-214 -268 0
-215 -269 0
-216 -270 0
-208 -298 0
-209 -299 0
-210 -300 0
-211 -301 0
-212 -302 0
-213 -303 0
-214 -304 0
-215 -305 0
-216 -306 0
-208 -325 0
-209 -326 0
-210 -327 0
-211 -328 0
-212 -329 0
-213 -330 0
-214 -331 0
-215 -332 0
-216 -333 0
-208 -343 0
-209 -344 0
-210 -345 0
-211 -346 0
-212 -347 0
-213 -348 0
-214 -349 0
-215 -350 0
-216 -351 0
-208 -361 0
-209 -362 0
-210 -363 0
-211 -364 0
-212 -365 0
-213 -366 0
-214 -367 0
-215 -368 0
-216 -369 0
-208 -370 0
-209 -371 0
-210 -372 0
-211 -373 0
-212 -374 0
-213 -375 0
-214 -376 0
-215 -377 0
-216 -378 0
-208 -388 0
-209 -389 0
-210 -390 0
-211 -391 0
-212 -392 0
-213 -393 0
-214 -394 0
-215 -395 0
-216 -396 0
-208 -415 0
-209 -416 0
-210 -417 0
-211 -418 0
-212 -419 0
-213 -420 0
-214 -421 0
-215 -422 0
-216 -423 0
-208 -424 0
-209 -425 0
-210 -426 0
-211 -427 0
-212 -428 0
-213 -429 0
-214 -430 0
-215 -431 0
-216 -432 0
-208 -451 0
-209 -452 0
-210 -453 0
-211 -454 0
-212 -455 0
-213 -456 0
-214 -457 0
-215 -458 0
-216 -459 0
-208 -460 0
-209 -461 0
-210 -462 0
-211 -463 0
-212 -464 0
-213 -465 0
-214 -466 0
-215 -467 0
-216 -468 0
-208 -478 0
-209 -479 0
-210 -480 0
-211 -481 0
-212 -482 0
-213 -483 0
-214 -484 0
-215 -485 0
-216 -486 0
-208 -496 0
-209 -497 0
-210 -498 0
-211 -499 0
-212 -500 0
-213 -501 0
-214 -502 0
-215 -503 0
-216 -504 0
-208 -523 0
-209 -524 0
-210 -525 0
-211 -526 0
-212 -527 0
-213 -528 0
-214 -529 0
-215 -530 0
-216 -531 0
-208 -541 0
-209 -542 0
-210 -543 0
-211 -544 0
-212 -545 0
-213 -546 0
-214 -547 0
-215 -548 0
-216 -549 0
-208 -559 0
-209 -560 0
-210 -561 0
-211 -562 0
-212 -563 0
-213 -564 0
-214 -565 0
-215 -566 0
-216 -567 0
-208 -595 0
-209 -596 0
-210 -597 0
-211 -598 0
-212 -599 0
-213 -600 0
-214 -601 0
-215 -602 0
-216 -603 0
-208 -622 0
-209 -623 0
-210 -624 0
-211 -625 0
-212 -626 0
-213 -627 0
-214 -628 0
-215 -629 0
-216 -630 0
-208 -640 0
-209 -641 0
-210 -642 0
-211 -643 0
-212 -644 0
-213 -645 0
-214 -646 0
-215 -647 0
-216 -648 0
-208 -676 0
-209 -677 0
-210 -678 0
-211 -679 0
-212 -680 0
-213 -681 0
-214 -682 0
-215 -683 0
-216 -684 0
-208 -694 0
-209 -695 0
-210 -696 0
-211 -697 0
-212 -698 0
-213 -699 0
-214 -700 0
-215 -701 0
-216 -702 0
-208 -811 0
-209 -812 0
-210 -813 0
-211 -814 0
-212 -815 0
-213 -816 0
-214 -817 0
-215 -818 0
-216 -819 0
-208 -829 0
-209 -830 0
-210 -831 0
-211 -832 0
-212 -833 0
-213 -834 0
-214 -835 0
-215 -836 0
-216 -837 0
-208 -1045 0
-209 -1046 0
-210 -1047 0
-211 -1048 0
-212 -1049 0
-213 -1050 0
-214 -1051 0
-215 -1052 0
-216 -1053 0
-208 -1126 0
-209 -1127 0
-210 -1128 0
-211 -1129 0
-212 -1130 0
-213 -1131 0
-214 -1132 0
-215 -1133 0
-216 -1134 0
-208 -1171 0
-209 -1172 0
-210 -1173 0
-211 -1174 0
-212 -1175 0
-213 -1176 0
-214 -1177 0
-215 -1178 0
-216 -1179 0
-208 -1252 0
-209 -1253 0
-210 -1254 0
-211 -1255 0
-212 -1256 0
-213 -1257 0
-214 -1258 0
-215 -1259 0
-216 -1260 0
-208 -1297 0
-209 -1298 0
-210 -1299 0
-211 -1300 0
-212 -1301 0
-213 -1302 0
-214 -1303 0
-215 -1304 0
-216 -1305 0
-208 -1315 0
-209 -1316 0
-210 -1317 0
-211 -1318 0
-212 -1319 0
-213 -1320 0
-214 -1321 0
-215 -1322 0
-216 -1323 0
-208 -1387 0
-209 -1388 0
-210 -1389 0
-211 -1390 0
-212 -1391 0
-213 -1392 0
-214 -1393 0
-215 -1394 0
-216 -1395 0
-208 -1396 0
-209 -1397 0
-210 -1398 0
-211 -1399 0
-212 -1400 0
-213 -1401 0
-214 -1402 0
-215 -1403 0
-216 -1404 0
-208 -1495 0
-209 -1496 0
-210 -1497 0
-211 -1498 0
-212 -1499 0
-213 -1500 0
-214 -1501 0
-215 -1502 0
-216 -1503 0
-208 -1504 0
-209 -1505 0
-210 -1506 0
-211 -1507 0
-212 -1508 0
-213 -1509 0
-214 -1510 0
-215 -1511 0
-216 -1512 0
-208 -1630 0
-209 -1631 0
-210 -1632 0
-211 -1633 0
-212 -1634 0
-213 -1635 0
-214 -1636 0
-215 -1637 0
-216 -1638 0
-208 -1648 0
-209 -1649 0
-210 -1650 0
-211 -1651 0
-212 -1652 0
-213 -1653 0
-214 -1654 0
-215 -1655 0
-216 -1656 0
-208 -1774 0
-209 -1775 0
-210 -1776 0
-211 -1777 0
-212 -1778 0
-213 -1779 0
-214 -1780 0
-215 -1781 0
-216 -1782 0
-208 -1945 0
-209 -1946 0
-210 -1947 0
-211 -1948 0
-212 -1949 0
-213 -1950 0
-214 -1951 0
-215 -1952 0
-216 -1953 0
-208 -2062 0
-209 -2063 0
-210 -2064 0
-211 -2065 0
-212 -2066 0
-213 -2067 0
-214 -2068 0
-215 -2069 0
-216 -2070 0
-208 -2080 0
-209 -2081 0
-210 -2082 0
-211 -2083 0
-212 -2084 0
-213 -2085 0
-214 -2086 0
-215 -2087 0
-216 -2088 0
-208 -2215 0
-209 -2216 0
-210 -2217 0
-211 -2218 0
-212 -2219 0
-213 -2220 0
-214 -2221 0
-215 -2222 0
-216 -2223 0
-208 -2467 0
-209 -2468 0
-210 -2469 0
-211 -2470 0
-212 -2471 0
-213 -2472 0
-214 -2473 0
-215 -2474 0
-216 -2475 0
-208 -2539 0
-209 -2540 0
-210 -2541 0
-211 -2542 0
-212 -2543 0
-213 -2544 0
-214 -2545 0
-215 -2546 0
-216 -2547 0
-208 -2611 0
-209 -2612 0
-210 -2613 0
-211 -2614 0
-212 -2615 0
-213 -2616 0
-214 -2617 0
-215 -2618 0
-216 -2619 0
-208 -2674 0
-209 -2675 0
-210 -2676 0
-211 -2677 0
-212 -2678 0
-213 -2679 0
-214 -2680 0
-215 -2681 0
-216 -2682 0
-208 -2746 0
-209 -2747 0
-210 -2748 0
-211 -2749 0
-212 -2750 0
-213 -2751 0
-214 -2752 0
-215 -2753 0
-216 -2754 0
-208 -2764 0
-209 -2765 0
-210 -2766 0
-211 -2767 0
-212 -2768 0
-213 -2769 0
-214 -2770 0
-215 -2771 0
-216 -2772 0
-208 -2800 0
-209 -2801 0
-210 -2802 0
-211 -2803 0
-212 -2804 0
-213 -2805 0
-214 -2806 0
-215 -2807 0
-216 -2808 0
-208 -2845 0
-209 -2846 0
-210 -2847 0
-211 -2848 0
-212 -2849 0
-213 -2850 0
-214 -2851 0
-215 -2852 0
-216 -2853 0
-208 -2854 0
-209 -2855 0
-210 -2856 0
-211 -2857 0
-212 -2858 0
-213 -2859 0
-214 -2860 0
-215 -2861 0
-216 -2862 0
-208 -2863 0
-209 -2864 0
-210 -2865 0
-211 -2866 0
-212 -2867 0
-213 -2868 0
-214 -2869 0
-215 -2870 0
-216 -2871 0
-217 -244 0
-218 -245 0
-219 -246 0
-220 -247 0
-221 -248 0
-222 -249 0
-223 -250 0
-224 -251 0
-225 -252 0
-217 -271 0
-218 -272 0
-219 -273 0
-220 -274 0
-221 -275 0
-222 -276 0
-223 -277 0
-224 -278 0
-225 -279 0
-217 -298 0
-218 -299 0
-219 -300 0
-220 -301 0
-221 -302 0
-222 -303 0
-223 -304 0
-224 -305 0
-225 -306 0
-217 -325 0
-218 -326 0
-219 -327 0
-220 -328 0
-221 -329 0
-222 -330 0
-223 -331 0
-224 -332 0
-225 -333 0
-217 -388 0
-218 -389 0
-219 -390 0
-220 -391 0
-221 -392 0
-222 -393 0
-223 -394 0
-224 -395 0
-225 -396 0
-217 -415 0
-218 -416 0
-219 -417 0
-220 -418 0
-221 -419 0
-222 -420 0
-223 -421 0
-224 -422 0
-225 -423 0
-217 -433 0
-218 -434 0
-219 -435 0
-220 -436 0
-221 -437 0
-222 -438 0
-223 -439 0
-224 -440 0
-225 -441 0
-217 -496 0
-218 -497 0
-219 -498 0
-220 -499 0
-221 -500 0
-222 -501 0
-223 -502 0
-224 -503 0
-225 -504 0
-217 -568 0
-218 -569 0
-219 -570 0
-220 -571 0
-221 -572 0
-222 -573 0
-223 -574 0
-224 -575 0
-225 -576 0
-217 -595 0
-218 -596 0
-219 -597 0
-220 -598 0
-221 -599 0
-222 -600 0
-223 -601 0
-224 -602 0
-225 -603 0
-217 -640 0
-218 -641 0
-219 -642 0
-220 -643 0
-221 -644 0
-222 -645 0
-223 -646 0
-224 -647 0
-225 -648 0
-217 -712 0
-218 -713 0
-219 -714 0
-220 -715 0
-221 -716 0
-222 -717 0
-223 -718 0
-224 -719 0
-225 -720 0
-217 -865 0
-218 -866 0
-219 -867 0
-220 -868 0
-221 -869 0
-222 -870 0
-223 -871 0
-224 -872 0
-225 -873 0
-217 -928 0
-218 -929 0
-219 -930 0
-220 -931 0
-221 -932 0
-222 -933 0
-223 -934 0
-224 -935 0
-225 -936 0
-217 -937 0
-218 -938 0
-219 -939 0
-220 -940 0
-221 -941 0
-222 -942 0
-223 -943 0
-224 -944 0
-225 -945 0
-217 -1297 0
-218 -1298 0
-219 -1299 0
-220 -1300 0
-221 -1301 0
-222 -1302 0
-223 -1303 0
-224 -1304 0
-225 -1305 0
-217 -1369 0
-218 -1370 0
-219 -1371 0
-220 -1372 0
-221 -1373 0
-222 -1374 0
-223 -1375 0
-224 -1376 0
-225 -1377 0
-217 -1414 0
-218 -1415 0
-219 -1416 0
-220 -1417 0
-221 -1418 0
-222 -1419 0
-223 -1420 0
-224 -1421 0
-225 -1422 0
-217 -1612 0
-218 -1613 0
-219 -1614 0
-220 -1615 0
-221 -1616 0
-222 -1617 0
-223 -1618 0
-224 -1619 0
-225 -1620 0
-217 -1693 0
-218 -1694 0
-219 -1695 0
-220 -1696 0
-221 -1697 0
-222 -1698 0
-223 -1699 0
-224 -1700 0
-225 -1701 0
-217 -1891 0
-218 -1892 0
-219 -1893 0
-220 -1894 0
-221 -1895 0
-222 -1896 0
-223 -1897 0
-224 -1898 0
-225 -1899 0
-217 -2062 0
-218 -2063 0
-219 -2064 0
-220 -2065 0
-221 -2066 0
-222 -2067 0
-223 -2068 0
-224 -2069 0
-225 -2070 0
-217 -2134 0
-218 -2135 0
-219 -2136 0
-220 -2137 0
-221 -2138 0
-222 -2139 0
-223 -2140 0
-224 -2141 0
-225 -2142 0
-217 -2143 0
-218 -2144 0
-219 -2145 0
-220 -2146 0
-221 -2147 0
-222 -2148 0
-223 -2149 0
-224 -2150 0
-225 -2151 0
-217 -2152 0
-218 -2153 0
-219 -2154 0
-220 -2155 0
-221 -2156 0
-222 -2157 0
-223 -2158 0
-224 -2159 0
-225 -2160 0
-217 -2170 0
-218 -2171 0
-219 -2172 0
-220 -2173 0
-221 -2174 0
-222 -2175 0
-223 -2176 0
-224 -2177 0
-225 -2178 0
-217 -2197 0
-218 -2198 0
-219 -2199 0
-220 -2200 0
-221 -2201 0
-222 -2202 0
-223 -2203 0
-224 -2204 0
-225 -2205 0
-217 -2242 0
-218 -2243 0
-219 -2244 0
-220 -2245 0
-221 -2246 0
-222 -2247 0
-223 -2248 0
-224 -2249 0
-225 -2250 0
-217 -2368 0
-218 -2369 0
-219 -2370 0
-220 -2371 0
-221 -2372 0
-222 -2373 0
-223 -2374 0
-224 -2375 0
-225 -2376 0
-217 -2377 0
-218 -2378 0
-219 -2379 0
-220 -2380 0
-221 -2381 0
-222 -2382 0
-223 -2383 0
-224 -2384 0
-225 -2385 0
-217 -2404 0
-218 -2405 0
-219 -2406 0
-220 -2407 0
-221 -2408 0
-222 -2409 0
-223 -2410 0
-224 -2411 0
-225 -2412 0
-217 -2458 0
-218 -2459 0
-219 -2460 0
-220 -2461 0
-221 -2462 0
-222 -2463 0
-223 -2464 0
-224 -2465 0
-225 -2466 0
-217 -2476 0
-218 -2477 0
-219 -2478 0
-220 -2479 0
-221 -2480 0
-222 -2481 0
-223 -2482 0
-224 -2483 0
-225 -2484 0
-217 -2647 0
-218 -2648 0
-219 -2649 0
-220 -2650 0
-221 -2651 0
-222 -2652 0
-223 -2653 0
-224 -2654 0
-225 -2655 0
-217 -2818 0
-218 -2819 0
-219 -2820 0
-220 -2821 0
-221 -2822 0
-222 -2823 0
-223 -2824 0
-224 -2825 0
-225 -2826 0
-217 -2845 0
-218 -2846 0
-219 -2847 0
-220 -2848 0
-221 -2849 0
-222 -2850 0
-223 -2851 0
-224 -2852 0
-225 -2853 0
-217 -2872 0
-218 -2873 0
-219 -2874 0
-220 -2875 0
-221 -2876 0
-222 -2877 0
-223 -2878 0
-224 -2879 0
-225 -2880 0
-226 -280 0
-227 -281 0
-228 -282 0
-229 -283 0
-230 -284 0
-231 -285 0
-232 -286 0
-233 -287 0
-234 -288 0
-226 -289 0
-227 -290 0
-228 -291 0
-229 -292 0
-230 -293 0
-231 -294 0
-232 -295 0
-233 -296 0
-234 -297 0
-226 -298 0
-227 -299 0
-228 -300 0
-229 -301 0
-230 -302 0
-231 -303 0
-232 -304 0
-233 -305 0
-234 -306 0
-226 -316 0
-227 -317 0
-228 -318 0
-229 -319 0
-230 -320 0
-231 -321 0
-232 -322 0
-233 -323 0
-234 -324 0
-226 -352 0
-227 -353 0
-228 -354 0
-229 -355 0
-230 -356 0
-231 -357 0
-232 -358 0
-233 -359 0
-234 -360 0
-226 -361 0
-227 -362 0
-228 -363 0
-229 -364 0
-230 -365 0
-231 -366 0
-232 -367 0
-233 -368 0
-234 -369 0
-226 -379 0
-227 -380 0
-228 -381 0
-229 -382 0
-230 -383 0
-231 -384 0
-232 -385 0
-233 -386 0
-234 -387 0
-226 -388 0
-227 -389 0
-228 -390 0
-229 -391 0
-230 -392 0
-231 -393 0
-232 -394 0
-233 -395 0
-234 -396 0
-226 -424 0
-227 -425 0
-228 -426 0
-229 -427 0
-230 -428 0
-231 -429 0
-232 -430 0
-233 -431 0
-234 -432 0
-226 -433 0
-227 -434 0
-228 -435 0
-229 -436 0
-230 -437 0
-231 -438 0
-232 -439 0
-233 -440 0
-234 -441 0
-226 -442 0
-227 -443 0
-228 -444 0
-229 -445 0
-230 -446 0
-231 -447 0
-232 -448 0
-233 -449 0
-234 -450 0
-226 -460 0
-227 -461 0
-228 -462 0
-229 -463 0
-230 -464 0
-231 -465 0
-232 -466 0
-233 -467 0
-234 -468 0
-226 -505 0
-227 -506 0
-228 -507 0
-229 -508 0
-230 -509 0
-231 -510 0
-232 -511 0
-233 -512 0
-234 -513 0
-226 -514 0
-227 -515 0
-228 -516 0
-229 -517 0
-230 -518 0
-231 -519 0
-232 -520 0
-233 -521 0
-234 -522 0
-226 -532 0
-227 -533 0
-228 -534 0
-229 -535 0
-230 -536 0
-231 -537 0
-232 -538 0
-233 -539 0
-234 -540 0
-226 -541 0
-227 -542 0
-228 -543 0
-229 -544 0
-230 -545 0
-231 -546 0
-232 -547 0
-233 -548 0
-234 -549 0
-226 -550 0
-227 -551 0
-228 -552 0
-229 -553 0
-230 -554 0
-231 -555 0
-232 -556 0
-233 -557 0
-234 -558 0
-226 -604 0
-227 -605 0
-228 -606 0
-229 -607 0
-230 -608 0
-231 -609 0
-232 -610 0
-233 -611 0
-234 -612 0
-226 -649 0
-227 -650 0
-228 -651 0
-229 -652 0
-230 -653 0
-231 -654 0
-232 -655 0
-233 -656 0
-234 -657 0
-226 -658 0
-227 -659 0
-228 -660 0
-229 -661 0
-230 -662 0
-231 -663 0
-232 -664 0
-233 -665 0
-234 -666 0
-226 -703 0
-227 -704 0
-228 -705 0
-229 -706 0
-230 -707 0
-231 -708 0
-232 -709 0
-233 -710 0
-234 -711 0
-226 -712 0
-227 -713 0
-228 -714 0
-229 -715 0
-230 -716 0
-231 -717 0
-232 -718 0
-233 -719 0
-234 -720 0
-226 -856 0
-227 -857 0
-228 -858 0
-229 -859 0
-230 -860 0
-231 -861 0
-232 -862 0
-233 -863 0
-234 -864 0
-226 -865 0
-227 -866 0
-228 -867 0
-229 -868 0
-230 -869 0
-231 -870 0
-232 -871 0
-233 -872 0
-234 -873 0
-226 -1054 0
-227 -1055 0
-228 -1056 0
-229 -1057 0
-230 -1058 0
-231 -1059 0
-232 -1060 0
-233 -1061 0
-234 -1062 0
-226 -1135 0
-227 -1136 0
-228 -1137 0
-229 -1138 0
-230 -1139 0
-231 -1140 0
-232 -1141 0
-233 -1142 0
-234 -1143 0
-226 -1153 0
-227 -1154 0
-228 -1155 0
-229 -1156 0
-230 -1157 0
-231 -1158 0
-232 -1159 0
-233 -1160 0
-234 -1161 0
-226 -1351 0
-227 -1352 0
-228 -1353 0
-229 -1354 0
-230 -1355 0
-231 -1356 0
-232 -1357 0
-233 -1358 0
-234 -1359 0
-226 -1360 0
-227 -1361 0
-228 -1362 0
-229 -1363 0
-230 -1364 0
-231 -1365 0
-232 -1366 0
-233 -1367 0
-234 -1368 0
-226 -1441 0
-227 -1442 0
-228 -1443 0
-229 -1444 0
-230 -1445 0
-231 -1446 0
-232 -1447 0
-233 -1448 0
-234 -1449 0
-226 -1522 0
-227 -1523 0
-228 -1524 0
-229 -1525 0
-230 -1526 0
-231 -1527 0
-232 -1528 0
-233 -1529 0
-234 -1530 0
-226 -1531 0
-227 -1532 0
-228 -1533 0
-229 -1534 0
-230 -1535 0
-231 -1536 0
-232 -1537 0
-233 -1538 0
-234 -1539 0
-226 -1558 0
-227 -1559 0
-228 -1560 0
-229 -1561 0
-230 -1562 0
-231 -1563 0
-232 -1564 0
-233 -1565 0
-234 -1566 0
-226 -1567 0
-227 -1568 0
-228 -1569 0
-229 -1570 0
-230 -1571 0
-231 -1572 0
-232 -1573 0
-233 -1574 0
-234 -1575 0
-226 -1729 0
-227 -1730 0
-228 -1731 0
-229 -1732 0
-230 -1733 0
-231 -1734 0
-232 -1735 0
-233 -1736 0
-234 -1737 0
-226 -1855 0
-227 -1856 0
-228 -1857 0
-229 -1858 0
-230 -1859 0
-231 -1860 0
-232 -1861 0
-233 -1862 0
-234 -1863 0
-226 -1882 0
-227 -1883 0
-228 -1884 0
-229 -1885 0
-230 -1886 0
-231 -1887 0
-232 -1888 0
-233 -1889 0
-234 -1890 0
-226 -1972 0
-227 -1973 0
-228 -1974 0
-229 -1975 0
-230 -1976 0
-231 -1977 0
-232 -1978 0
-233 -1979 0
-234 -1980 0
-226 -2071 0
-227 -2072 0
-228 -2073 0
-229 -2074 0
-230 -2075 0
-231 -2076 0
-232 -2077 0
-233 -2078 0
-234 -2079 0
-226 -2098 0
-227 -2099 0
-228 -2100 0
-229 -2101 0
-230 -2102 0
-231 -2103 0
-232 -2104 0
-233 -2105 0
-234 -2106 0
-226 -2188 0
-227 -2189 0
-228 -2190 0
-229 -2191 0
-230 -2192 0
-231 -2193 0
-232 -2194 0
-233 -2195 0
-234 -2196 0
-226 -2512 0
-227 -2513 0
-228 -2514 0
-229 -2515 0
-230 -2516 0
-231 -2517 0
-232 -2518 0
-233 -2519 0
-234 -2520 0
-226 -2557 0
-227 -2558 0
-228 -2559 0
-229 -2560 0
-230 -2561 0
-231 -2562 0
-232 -2563 0
-233 -2564 0
-234 -2565 0
-226 -2611 0
-227 -2612 0
-228 -2613 0
-229 -2614 0
-230 -2615 0
-231 -2616 0
-232 -2617 0
-233 -2618 0
-234 -2619 0
-226 -2674 0
-227 -2675 0
-228 -2676 0
-229 -2677 0
-230 -2678 0
-231 -2679 0
-232 -2680 0
-233 -2681 0
-234 -2682 0
-226 -2755 0
-227 -2756 0
-228 -2757 0
-229 -2758 0
-230 -2759 0
-231 -2760 0
-232 -2761 0
-233 -2762 0
-234 -2763 0
-226 -2782 0
-227 -2783 0
-228 -2784 0
-229 -2785 0
-230 -2786 0
-231 -2787 0
-232 -2788 0
-233 -2789 0
-234 -2790 0
-226 -2809 0
-227 -2810 0
-228 -2811 0
-229 -2812 0
-230 -2813 0
-231 -2814 0
-232 -2815 0
-233 -2816 0
-234 -2817 0
-226 -2872 0
-227 -2873 0
-228 -2874 0
-229 -2875 0
-230 -2876 0
-231 -2877 0
-232 -2878 0
-233 -2879 0
-234 -2880 0
-226 -2881 0
-227 -2882 0
-228 -2883 0
-229 -2884 0
-230 -2885 0
-231 -2886 0
-232 -2887 0
-233 -2888 0
-234 -2889 0
-226 -2890 0
-227 -2891 0
-228 -2892 0
-229 -2893 0
-230 -2894 0
-231 -2895 0
-232 -2896 0
-233 -2897 0
-234 -2898 0
-235 -280 0
-236 -281 0
-237 -282 0
-238 -283 0
-239 -284 0
-240 -285 0
-241 -286 0
-242 -287 0
-243 -288 0
-235 -343 0
-236 -344 0
-237 -345 0
-238 -346 0
-239 -347 0
-240 -348 0
-241 -349 0
-242 -350 0
-243 -351 0
-235 -352 0
-236 -353 0
-237 -354 0
-238 -355 0
-239 -356 0
-240 -357 0
-241 -358 0
-242 -359 0
-243 -360 0
-235 -379 0
-236 -380 0
-237 -381 0
-238 -382 0
-239 -383 0
-240 -384 0
-241 -385 0
-242 -386 0
-243 -387 0
-235 -442 0
-236 -443 0
-237 -444 0
-238 -445 0
-239 -446 0
-240 -447 0
-241 -448 0
-242 -449 0
-243 -450 0
-235 -451 0
-236 -452 0
-237 -453 0
-238 -454 0
-239 -455 0
-240 -456 0
-241 -457 0
-242 -458 0
-243 -459 0
-235 -505 0
-236 -506 0
-237 -507 0
-238 -508 0
-239 -509 0
-240 -510 0
-241 -511 0
-242 -512 0
-243 -513 0
-235 -559 0
-236 -560 0
-237 -561 0
-238 -562 0
-239 -563 0
-240 -564 0
-241 -565 0
-242 -566 0
-243 -567 0
-235 -604 0
-236 -605 0
-237 -606 0
-238 -607 0
-239 -608 0
-240 -609 0
-241 -610 0
-242 -611 0
-243 -612 0
-235 -649 0
-236 -650 0
-237 -651 0
-238 -652 0
-239 -653 0
-240 -654 0
-241 -655 0
-242 -656 0
-243 -657 0
-235 -685 0
-236 -686 0
-237 -687 0
-238 -688 0
-239 -689 0
-240 -690 0
-241 -691 0
-242 -692 0
-243 -693 0
-235 -820 0
-236 -821 0
-237 -822 0
-238 -823 0
-239 -824 0
-240 -825 0
-241 -826 0
-242 -827 0
-243 -828 0
-235 -964 0
-236 -965 0
-237 -966 0
-238 -967 0
-239 -968 0
-240 -969 0
-241 -970 0
-242 -971 0
-243 -972 0
-235 -991 0
-236 -992 0
-237 -993 0
-238 -994 0
-239 -995 0
-240 -996 0
-241 -997 0
-242 -998 0
-243 -999 0
-235 -1531 0
-236 -1532 0
-237 -1533 0
-238 -1534 0
-239 -1535 0
-240 -1536 0
-241 -1537 0
-242 -1538 0
-243 -1539 0
-235 -1540 0
-236 -1541 0
-237 -1542 0
-238 -1543 0
-239 -1544 0
-240 -1545 0
-241 -1546 0
-242 -1547 0
-243 -1548 0
-235 -1576 0
-236 -1577 0
-237 -1578 0
-238 -1579 0
-239 -1580 0
-240 -1581 0
-241 -1582 0
-242 -1583 0
-243 -1584 0
-235 -1657 0
-236 -1658 0
-237 -1659 0
-238 -1660 0
-239 -1661 0
-240 -1662 0
-241 -1663 0
-242 -1664 0
-243 -1665 0
-235 -1855 0
-236 -1856 0
-237 -1857 0
-238 -1858 0
-239 -1859 0
-240 -1860 0
-241 -1861 0
-242 -1862 0
-243 -1863 0
-235 -1918 0
-236 -1919 0
-237 -1920 0
-238 -1921 0
-239 -1922 0
-240 -1923 0
-241 -1924 0
-242 -1925 0
-243 -1926 0
-235 -1927 0
-236 -1928 0
-237 -1929 0
-238 -1930 0
-239 -1931 0
-240 -1932 0
-241 -1933 0
-242 -1934 0
-243 -1935 0
-235 -1945 0
-236 -1946 0
-237 -1947 0
-238 -1948 0
-239 -1949 0
-240 -1950 0
-241 -1951 0
-242 -1952 0
-243 -1953 0
-235 -1954 0
-236 -1955 0
-237 -1956 0
-238 -1957 0
-239 -1958 0
-240 -1959 0
-241 -1960 0
-242 -1961 0
-243 -1962 0
-235 -2017 0
-236 -2018 0
-237 -2019 0
-238 -2020 0
-239 -2021 0
-240 -2022 0
-241 -2023 0
-242 -2024 0
-243 -2025 0
-235 -2026 0
-236 -2027 0
-237 -2028 0
-238 -2029 0
-239 -2030 0
-240 -2031 0
-241 -2032 0
-242 -2033 0
-243 -2034 0
-235 -2053 0
-236 -2054 0
-237 -2055 0
-238 -2056 0
-239 -2057 0
-240 -2058 0
-241 -2059 0
-242 -2060 0
-243 -2061 0
-235 -2125 0
-236 -2126 0
-237 -2127 0
-238 -2128 0
-239 -2129 0
-240 -2130 0
-241 -2131 0
-242 -2132 0
-243 -2133 0
-235 -2287 0
-236 -2288 0
-237 -2289 0
-238 -2290 0
-239 -2291 0
-240 -2292 0
-241 -2293 0
-242 -2294 0
-243 -2295 0
-235 -2431 0
-236 -2432 0
-237 -2433 0
-238 -2434 0
-239 -2435 0
-240 -2436 0
-241 -2437 0
-242 -2438 0
-243 -2439 0
-235 -2440 0
-236 -2441 0
-237 -2442 0
-238 -2443 0
-239 -2444 0
-240 -2445 0
-241 -2446 0
-242 -2447 0
-243 -2448 0
-235 -2449 0
-236 -2450 0
-237 -2451 0
-238 -2452 0
-239 -2453 0
-240 -2454 0
-241 -2455 0
-242 -2456 0
-243 -2457 0
-235 -2467 0
-236 -2468 0
-237 -2469 0
-238 -2470 0
-239 -2471 0
-240 -2472 0
-241 -2473 0
-242 -2474 0
-243 -2475 0
-235 -2656 0
-236 -2657 0
-237 -2658 0
-238 -2659 0
-239 -2660 0
-240 -2661 0
-241 -2662 0
-242 -2663 0
-243 -2664 0
-235 -2827 0
-236 -2828 0
-237 -2829 0
-238 -2830 0
-239 -2831 0
-240 -2832 0
-241 -2833 0
-242 -2834 0
-243 -2835 0
-235 -2863 0
-236 -2864 0
-237 -2865 0
-238 -2866 0
-239 -2867 0
-240 -2868 0
-241 -2869 0
-242 -2870 0
-243 -2871 0
-235 -2890 0
-236 -2891 0
-237 -2892 0
-238 -2893 0
-239 -2894 0
-240 -2895 0
-241 -2896 0
-242 -2897 0
-243 -2898 0
-244 -298 0
-245 -299 0
-246 -300 0
-247 -301 0
-248 -302 0
-249 -303 0
-250 -304 0
-251 -305 0
-252 -306 0
-244 -334 0
-245 -335 0
-246 -336 0
-247 -337 0
-248 -338 0
-249 -339 0
-250 -340 0
-251 -341 0
-252 -342 0
-244 -352 0
-245 -353 0
-246 -354 0
-247 -355 0
-248 -356 0
-249 -357 0
-250 -358 0
-251 -359 0
-252 -360 0
-244 -388 0
-245 -389 0
-246 -390 0
-247 -391 0
-248 -392 0
-249 -393 0
-250 -394 0
-251 -395 0
-252 -396 0
-244 -442 0
-245 -443 0
-246 -444 0
-247 -445 0
-248 -446 0
-249 -447 0
-250 -448 0
-251 -449 0
-252 -450 0
-244 -451 0
-245 -452 0
-246 -453 0
-247 -454 0
-248 -455 0
-249 -456 0
-250 -457 0
-251 -458 0
-252 -459 0
-244 -514 0
-245 -515 0
-246 -516 0
-247 -517 0
-248 -518 0
-249 -519 0
-250 -520 0
-251 -521 0
-252 -522 0
-244 -568 0
-245 -569 0
-246 -570 0
-247 -571 0
-248 -572 0
-249 -573 0
-250 -574 0
-251 -575 0
-252 -576 0
-244 -604 0
-245 -605 0
-246 -606 0
-247 -607 0
-248 -608 0
-249 -609 0
-250 -610 0
-251 -611 0
-252 -612 0
-244 -658 0
-245 -659 0
-246 -660 0
-247 -661 0
-248 -662 0
-249 -663 0
-250 -664 0
-251 -665 0
-252 -666 0
-244 -694 0
-245 -695 0
-246 -696 0
-247 -697 0
-248 -698 0
-249 -699 0
-250 -700 0
-251 -701 0
-252 -702 0
-244 -829 0
-245 -830 0
-246 -831 0
-247 -832 0
-248 -833 0
-249 -834 0
-250 -835 0
-251 -836 0
-252 -837 0
-244 -964 0
-245 -965 0
-246 -966 0
-247 -967 0
-248 -968 0
-249 -969 0
-250 -970 0
-251 -971 0
-252 -972 0
-244 -982 0
-245 -983 0
-246 -984 0
-247 -985 0
-248 -986 0
-249 -987 0
-250 -988 0
-251 -989 0
-252 -990 0
-244 -1522 0
-245 -1523 0
-246 -1524 0
-247 -1525 0
-248 -1526 0
-249 -1527 0
-250 -1528 0
-251 -1529 0
-252 -1530 0
-244 -1549 0
-245 -1550 0
-246 -1551 0
-247 -1552 0
-248 -1553 0
-249 -1554 0
-250 -1555 0
-251 -1556 0
-252 -1557 0
-244 -1585 0
-245 -1586 0
-246 -1587 0
-247 -1588 0
-248 -1589 0
-249 -1590 0
-250 -1591 0
-251 -1592 0
-252 -1593 0
-244 -1666 0
-245 -1667 0
-246 -1668 0
-247 -1669 0
-248 -1670 0
-249 -1671 0
-250 -1672 0
-251 -1673 0
-252 -1674 0
-244 -1837 0
-245 -1838 0
-246 -1839 0
-247 -1840 0
-248 -1841 0
-249 -1842 0
-250 -1843 0
-251 -1844 0
-252 -1845 0
-244 -1909 0
-245 -1910 0
-246 -1911 0
-247 -1912 0
-248 -1913 0
-249 -1914 0
-250 -1915 0
-251 -1916 0
-252 -1917 0
-244 -2071 0
-245 -2072 0
-246 -2073 0
-247 -2074 0
-248 -2075 0
-249 -2076 0
-250 -2077 0
-251 -2078 0
-252 -2079 0
-244 -2134 0
-245 -2135 0
-246 -2136 0
-247 -2137 0
-248 -2138 0
-249 -2139 0
-250 -2140 0
-251 -2141 0
-252 -2142 0
-244 -2143 0
-245 -2144 0
-246 -2145 0
-247 -2146 0
-248 -2147 0
-249 -2148 0
-250 -2149 0
-251 -2150 0
-252 -2151 0
-244 -2152 0
-245 -2153 0
-246 -2154 0
-247 -2155 0
-248 -2156 0
-249 -2157 0
-250 -2158 0
-251 -2159 0
-252 -2160 0
-244 -2161 0
-245 -2162 0
-246 -2163 0
-247 -2164 0
-248 -2165 0
-249 -2166 0
-250 -2167 0
-251 -2168 0
-252 -2169 0
-244 -2224 0
-245 -2225 0
-246 -2226 0
-247 -2227 0
-248 -2228 0
-249 -2229 0
-250 -2230 0
-251 -2231 0
-252 -2232 0
-244 -2233 0
-245 -2234 0
-246 -2235 0
-247 -2236 0
-248 -2237 0
-249 -2238 0
-250 -2239 0
-251 -2240 0
-252 -2241 0
-244 -2350 0
-245 -2351 0
-246 -2352 0
-247 -2353 0
-248 -2354 0
-249 -2355 0
-250 -2356 0
-251 -2357 0
-252 -2358 0
-244 -2422 0
-245 -2423 0
-246 -2424 0
-247 -2425 0
-248 -2426 0
-249 -2427 0
-250 -2428 0
-251 -2429 0
-252 -2430 0
-244 -2440 0
-245 -2441 0
-246 -2442 0
-247 -2443 0
-248 -2444 0
-249 -2445 0
-250 -2446 0
-251 -2447 0
-252 -2448 0
-244 -2458 0
-245 -2459 0
-246 -2460 0
-247 -2461 0
-248 -2462 0
-249 -2463 0
-250 -2464 0
-251 -2465 0
-252 -2466 0
-244 -2476 0
-245 -2477 0
-246 -2478 0
-247 -2479 0
-248 -2480 0
-249 -2481 0
-250 -2482 0
-251 -2483 0
-252 -2484 0
-244 -2665 0
-245 -2666 0
-246 -2667 0
-247 -2668 0
-248 -2669 0
-249 -2670 0
-250 -2671 0
-251 -2672 0
-252 -2673 0
-244 -2836 0
-245 -2837 0
-246 -2838 0
-247 -2839 0
-248 -2840 0
-249 -2841 0
-250 -2842 0
-251 -2843 0
-252 -2844 0
-244 -2854 0
-245 -2855 0
-246 -2856 0
-247 -2857 0
-248 -2858 0
-249 -2859 0
-250 -2860 0
-251 -2861 0
-252 -2862 0
-244 -2881 0
-245 -2882 0
-246 -2883 0
-247 -2884 0
-248 -2885 0
-249 -2886 0
-250 -2887 0
-251 -2888 0
-252 -2889 0
-253 -280 0
-254 -281 0
-255 -282 0
-256 -283 0
-257 -284 0
-258 -285 0
-259 -286 0
-260 -287 0
-261 -288 0
-253 -298 0
-254 -299 0
-255 -300 0
-256 -301 0
-257 -302 0
-258 -303 0
-259 -304 0
-260 -305 0
-261 -306 0
-253 -307 0
-254 -308 0
-255 -309 0
-256 -310 0
-257 -311 0
-258 -312 0
-259 -313 0
-260 -314 0
-261 -315 0
-253 -325 0
-254 -326 0
-255 -327 0
-256 -328 0
-257 -329 0
-258 -330 0
-259 -331 0
-260 -332 0
-261 -333 0
-253 -361 0
-254 -362 0
-255 -363 0
-256 -364 0
-257 -365 0
-258 -366 0
-259 -367 0
-260 -368 0
-261 -369 0
-253 -370 0
-254 -371 0
-255 -372 0
-256 -373 0
-257 -374 0
-258 -375 0
-259 -376 0
-260 -377 0
-261 -378 0
-253 -397 0
-254 -398 0
-255 -399 0
-256 -400 0
-257 -401 0
-258 -402 0
-259 -403 0
-260 -404 0
-261 -405 0
-253 -406 0
-254 -407 0
-255 -408 0
-256 -409 0
-257 -410 0
-258 -411 0
-259 -412 0
-260 -413 0
-261 -414 0
-253 -415 0
-254 -416 0
-255 -417 0
-256 -418 0
-257 -419 0
-258 -420 0
-259 -421 0
-260 -422 0
-261 -423 0
-253 -424 0
-254 -425 0
-255 -426 0
-256 -427 0
-257 -428 0
-258 -429 0
-259 -430 0
-260 -431 0
-261 -432 0
-253 -433 0
-254 -434 0
-255 -435 0
-256 -436 0
-257 -437 0
-258 -438 0
-259 -439 0
-260 -440 0
-261 -441 0
-253 -469 0
-254 -470 0
-255 -471 0
-256 -472 0
-257 -473 0
-258 -474 0
-259 -475 0
-260 -476 0
-261 -477 0
-253 -478 0
-254 -479 0
-255 -480 0
-256 -481 0
-257 -482 0
-258 -483 0
-259 -484 0
-260 -485 0
-261 -486 0
-253 -550 0
-254 -551 0
-255 -552 0
-256 -553 0
-257 -554 0
-258 -555 0
-259 -556 0
-260 -557 0
-261 -558 0
-253 -577 0
-254 -578 0
-255 -579 0
-256 -580 0
-257 -581 0
-258 -582 0
-259 -583 0
-260 -584 0
-261 -585 0
-253 -685 0
-254 -686 0
-255 -687 0
-256 -688 0
-257 -689 0
-258 -690 0
-259 -691 0
-260 -692 0
-261 -693 0
-253 -694 0
-254 -695 0
-255 -696 0
-256 -697 0
-257 -698 0
-258 -699 0
-259 -700 0
-260 -701 0
-261 -702 0
-253 -766 0
-254 -767 0
-255 -768 0
-256 -769 0
-257 -770 0
-258 -771 0
-259 -772 0
-260 -773 0
-261 -774 0
-253 -982 0
-254 -983 0
-255 -984 0
-256 -985 0
-257 -986 0
-258 -987 0
-259 -988 0
-260 -989 0
-261 -990 0
-253 -991 0
-254 -992 0
-255 -993 0
-256 -994 0
-257 -995 0
-258 -996 0
-259 -997 0
-260 -998 0
-261 -999 0
-253 -1000 0
-254 -1001 0
-255 -1002 0
-256 -1003 0
-257 -1004 0
-258 -1005 0
-259 -1006 0
-260 -1007 0
-261 -1008 0
-253 -1009 0
-254 -1010 0
-255 -1011 0
-256 -1012 0
-257 -1013 0
-258 -1014 0
-259 -1015 0
-260 -1016 0
-261 -1017 0
-253 -1045 0
-254 -1046 0
-255 -1047 0
-256 -1048 0
-257 -1049 0
-258 -1050 0
-259 -1051 0
-260 -1052 0
-261 -1053 0
-253 -1081 0
-254 -1082 0
-255 -1083 0
-256 -1084 0
-257 -1085 0
-258 -1086 0
-259 -1087 0
-260 -1088 0
-261 -1089 0
-253 -1126 0
-254 -1127 0
-255 -1128 0
-256 -1129 0
-257 -1130 0
-258 -1131 0
-259 -1132 0
-260 -1133 0
-261 -1134 0
-253 -1180 0
-254 -1181 0
-255 -1182 0
-256 -1183 0
-257 -1184 0
-258 -1185 0
-259 -1186 0
-260 -1187 0
-261 -1188 0
-253 -1207 0
-254 -1208 0
-255 -1209 0
-256 -1210 0
-257 -1211 0
-258 -1212 0
-259 -1213 0
-260 -1214 0
-261 -1215 0
-253 -1225 0
-254 -1226 0
-255 -1227 0
-256 -1228 0
-257 -1229 0
-258 -1230 0
-259 -1231 0
-260 -1232 0
-261 -1233 0
-253 -1270 0
-254 -1271 0
-255 -1272 0
-256 -1273 0
-257 -1274 0
-258 -1275 0
-259 -1276 0
-260 -1277 0
-261 -1278 0
-253 -1297 0
-254 -1298 0
-255 -1299 0
-256 -1300 0
-257 -1301 0
-258 -1302 0
-259 -1303 0
-260 -1304 0
-261 -1305 0
-253 -1342 0
-254 -1343 0
-255 -1344 0
-256 -1345 0
-257 -1346 0
-258 -1347 0
-259 -1348 0
-260 -1349 0
-261 -1350 0
-253 -1387 0
-254 -1388 0
-255 -1389 0
-256 -1390 0
-257 -1391 0
-258 -1392 0
-259 -1393 0
-260 -1394 0
-261 -1395 0
-253 -1414 0
-254 -1415 0
-255 -1416 0
-256 -1417 0
-257 -1418 0
-258 -1419 0
-259 -1420 0
-260 -1421 0
-261 -1422 0
-253 -1423 0
-254 -1424 0
-255 -1425 0
-256 -1426 0
-257 -1427 0
-258 -1428 0
-259 -1429 0
-260 -1430 0
-261 -1431 0
-253 -1468 0
-254 -1469 0
-255 -1470 0
-256 -1471 0
-257 -1472 0
-258 -1473 0
-259 -1474 0
-260 -1475 0
-261 -1476 0
-253 -1477 0
-254 -1478 0
-255 -1479 0
-256 -1480 0
-257 -1481 0
-258 -1482 0
-259 -1483 0
-260 -1484 0
-261 -1485 0
-253 -1639 0
-254 -1640 0
-255 -1641 0
-256 -1642 0
-257 -1643 0
-258 -1644 0
-259 -1645 0
-260 -1646 0
-261 -1647 0
-253 -1648 0
-254 -1649 0
-255 -1650 0
-256 -1651 0
-257 -1652 0
-258 -1653 0
-259 -1654 0
-260 -1655 0
-261 -1656 0
-253 -1837 0
-254 -1838 0
-255 -1839 0
-256 -1840 0
-257 -1841 0
-258 -1842 0
-259 -1843 0
-260 -1844 0
-261 -1845 0
-253 -1873 0
-254 -1874 0
-255 -1875 0
-256 -1876 0
-257 -1877 0
-258 -1878 0
-259 -1879 0
-260 -1880 0
-261 -1881 0
-253 -1909 0
-254 -1910 0
-255 -1911 0
-256 -1912 0
-257 -1913 0
-258 -1914 0
-259 -1915 0
-260 -1916 0
-261 -1917 0
-253 -1927 0
-254 -1928 0
-255 -1929 0
-256 -1930 0
-257 -1931 0
-258 -1932 0
-259 -1933 0
-260 -1934 0
-261 -1935 0
-253 -1936 0
-254 -1937 0
-255 -1938 0
-256 -1939 0
-257 -1940 0
-258 -1941 0
-259 -1942 0
-260 -1943 0
-261 -1944 0
-253 -1963 0
-254 -1964 0
-255 -1965 0
-256 -1966 0
-257 -1967 0
-258 -1968 0
-259 -1969 0
-260 -1970 0
-261 -1971 0
-253 -1981 0
-254 -1982 0
-255 -1983 0
-256 -1984 0
-257 -1985 0
-258 -1986 0
-259 -1987 0
-260 -1988 0
-261 -1989 0
-253 -2053 0
-254 -2054 0
-255 -2055 0
-256 -2056 0
-257 -2057 0
-258 -2058 0
-259 -2059 0
-260 -2060 0
-261 -2061 0
-253 -2089 0
-254 -2090 0
-255 -2091 0
-256 -2092 0
-257 -2093 0
-258 -2094 0
-259 -2095 0
-260 -2096 0
-261 -2097 0
-253 -2125 0
-254 -2126 0
-255 -2127 0
-256 -2128 0
-257 -2129 0
-258 -2130 0
-259 -2131 0
-260 -2132 0
-261 -2133 0
-253 -2143 0
-254 -2144 0
-255 -2145 0
-256 -2146 0
-257 -2147 0
-258 -2148 0
-259 -2149 0
-260 -2150 0
-261 -2151 0
-253 -2170 0
-254 -2171 0
-255 -2172 0
-256 -2173 0
-257 -2174 0
-258 -2175 0
-259 -2176 0
-260 -2177 0
-261 -2178 0
-253 -2179 0
-254 -2180 0
-255 -2181 0
-256 -2182 0
-257 -2183 0
-258 -2184 0
-259 -2185 0
-260 -2186 0
-261 -2187 0
-253 -2323 0
-254 -2324 0
-255 -2325 0
-256 -2326 0
-257 -2327 0
-258 -2328 0
-259 -2329 0
-260 -2330 0
-261 -2331 0
-253 -2386 0
-254 -2387 0
-255 -2388 0
-256 -2389 0
-257 -2390 0
-258 -2391 0
-259 -2392 0
-260 -2393 0
-261 -2394 0
-253 -2413 0
-254 -2414 0
-255 -2415 0
-256 -2416 0
-257 -2417 0
-258 -2418 0
-259 -2419 0
-260 -2420 0
-261 -2421 0
-253 -2449 0
-254 -2450 0
-255 -2451 0
-256 -2452 0
-257 -2453 0
-258 -2454 0
-259 -2455 0
-260 -2456 0
-261 -2457 0
-253 -2458 0
-254 -2459 0
-255 -2460 0
-256 -2461 0
-257 -2462 0
-258 -2463 0
-259 -2464 0
-260 -2465 0
-261 -2466 0
-253 -2485 0
-254 -2486 0
-255 -2487 0
-256 -2488 0
-257 -2489 0
-258 -2490 0
-259 -2491 0
-260 -2492 0
-261 -2493 0
-253 -2494 0
-254 -2495 0
-255 -2496 0
-256 -2497 0
-257 -2498 0
-258 -2499 0
-259 -2500 0
-260 -2501 0
-261 -2502 0
-253 -2575 0
-254 -2576 0
-255 -2577 0
-256 -2578 0
-257 -2579 0
-258 -2580 0
-259 -2581 0
-260 -2582 0
-261 -2583 0
-253 -2701 0
-254 -2702 0
-255 -2703 0
-256 -2704 0
-257 -2705 0
-258 -2706 0
-259 -2707 0
-260 -2708 0
-261 -2709 0
-253 -2719 0
-254 -2720 0
-255 -2721 0
-256 -2722 0
-257 -2723 0
-258 -2724 0
-259 -2725 0
-260 -2726 0
-261 -2727 0
-253 -2791 0
-254 -2792 0
-255 -2793 0
-256 -2794 0
-257 -2795 0
-258 -2796 0
-259 -2797 0
-260 -2798 0
-261 -2799 0
-253 -2845 0
-254 -2846 0
-255 -2847 0
-256 -2848 0
-257 -2849 0
-258 -2850 0
-259 -2851 0
-260 -2852 0
-261 -2853 0
-262 -343 0
-263 -344 0
-264 -345 0
-265 -346 0
-266 -347 0
-267 -348 0
-268 -349 0
-269 -350 0
-270 -351 0
-262 -397 0
-263 -398 0
-264 -399 0
-265 -400 0
-266 -401 0
-267 -402 0
-268 -403 0
-269 -404 0
-270 -405 0
-262 -406 0
-263 -407 0
-264 -408 0
-265 -409 0
-266 -410 0
-267 -411 0
-268 -412 0
-269 -413 0
-270 -414 0
-262 -460 0
-263 -461 0
-264 -462 0
-265 -463 0
-266 -464 0
-267 -465 0
-268 -466 0
-269 -467 0
-270 -468 0
-262 -478 0
-263 -479 0
-264 -480 0
-265 -481 0
-266 -482 0
-267 -483 0
-268 -484 0
-269 -485 0
-270 -486 0
-262 -487 0
-263 -488 0
-264 -489 0
-265 -490 0
-266 -491 0
-267 -492 0
-268 -493 0
-269 -494 0
-270 -495 0
-262 -685 0
-263 -686 0
-264 -687 0
-265 -688 0
-266 -689 0
-267 -690 0
-268 -691 0
-269 -692 0
-270 -693 0
-262 -721 0
-263 -722 0
-264 -723 0
-265 -724 0
-266 -725 0
-267 -726 0
-268 -727 0
-269 -728 0
-270 -729 0
-262 -766 0
-263 -767 0
-264 -768 0
-265 -769 0
-266 -770 0
-267 -771 0
-268 -772 0
-269 -773 0
-270 -774 0
-262 -802 0
-263 -803 0
-264 -804 0
-265 -805 0
-266 -806 0
-267 -807 0
-268 -808 0
-269 -809 0
-270 -810 0
-262 -838 0
-263 -839 0
-264 -840 0
-265 -841 0
-266 -842 0
-267 -843 0
-268 -844 0
-269 -845 0
-270 -846 0
-262 -856 0
-263 -857 0
-264 -858 0
-265 -859 0
-266 -860 0
-267 -861 0
-268 -862 0
-269 -863 0
-270 -864 0
-262 -883 0
-263 -884 0
-264 -885 0
-265 -886 0
-266 -887 0
-267 -888 0
-268 -889 0
-269 -890 0
-270 -891 0
-262 -910 0
-263 -911 0
-264 -912 0
-265 -913 0
-266 -914 0
-267 -915 0
-268 -916 0
-269 -917 0
-270 -918 0
-262 -973 0
-263 -974 0
-264 -975 0
-265 -976 0
-266 -977 0
-267 -978 0
-268 -979 0
-269 -980 0
-270 -981 0
-262 -1036 0
-263 -1037 0
-264 -1038 0
-265 -1039 0
-266 -1040 0
-267 -1041 0
-268 -1042 0
-269 -1043 0
-270 -1044 0
-262 -1081 0
-263 -1082 0
-264 -1083 0
-265 -1084 0
-266 -1085 0
-267 -1086 0
-268 -1087 0
-269 -1088 0
-270 -1089 0
-262 -1108 0
-263 -1109 0
-264 -1110 0
-265 -1111 0
-266 -1112 0
-267 -1113 0
-268 -1114 0
-269 -1115 0
-270 -1116 0
-262 -1144 0
-263 -1145 0
-264 -1146 0
-265 -1147 0
-266 -1148 0
-267 -1149 0
-268 -1150 0
-269 -1151 0
-270 -1152 0
-262 -1153 0
-263 -1154 0
-264 -1155 0
-265 -1156 0
-266 -1157 0
-267 -1158 0
-268 -1159 0
-269 -1160 0
-270 -1161 0
-262 -1198 0
-263 -1199 0
-264 -1200 0
-265 -1201 0
-266 -1202 0
-267 -1203 0
-268 -1204 0
-269 -1205 0
-270 -1206 0
-262 -1234 0
-263 -1235 0
-264 -1236 0
-265 -1237 0
-266 -1238 0
-267 -1239 0
-268 -1240 0
-269 -1241 0
-270 -1242 0
-262 -1252 0
-263 -1253 0
-264 -1254 0
-265 -1255 0
-266 -1256 0
-267 -1257 0
-268 -1258 0
-269 -1259 0
-270 -1260 0
-262 -1270 0
-263 -1271 0
-264 -1272 0
-265 -1273 0
-266 -1274 0
-267 -1275 0
-268 -1276 0
-269 -1277 0
-270 -1278 0
-262 -1387 0
-263 -1388 0
-264 -1389 0
-265 -1390 0
-266 -1391 0
-267 -1392 0
-268 -1393 0
-269 -1394 0
-270 -1395 0
-262 -1450 0
-263 -1451 0
-264 -1452 0
-265 -1453 0
-266 -1454 0
-267 -1455 0
-268 -1456 0
-269 -1457 0
-270 -1458 0
-262 -1576 0
-263 -1577 0
-264 -1578 0
-265 -1579 0
-266 -1580 0
-267 -1581 0
-268 -1582 0
-269 -1583 0
-270 -1584 0
-262 -1738 0
-263 -1739 0
-264 -1740 0
-265 -1741 0
-266 -1742 0
-267 -1743 0
-268 -1744 0
-269 -1745 0
-270 -1746 0
-262 -1774 0
-263 -1775 0
-264 -1776 0
-265 -1777 0
-266 -1778 0
-267 -1779 0
-268 -1780 0
-269 -1781 0
-270 -1782 0
-262 -1792 0
-263 -1793 0
-264 -1794 0
-265 -1795 0
-266 -1796 0
-267 -1797 0
-268 -1798 0
-269 -1799 0
-270 -1800 0
-262 -1864 0
-263 -1865 0
-264 -1866 0
-265 -1867 0
-266 -1868 0
-267 -1869 0
-268 -1870 0
-269 -1871 0
-270 -1872 0
-262 -1918 0
-263 -1919 0
-264 -1920 0
-265 -1921 0
-266 -1922 0
-267 -1923 0
-268 -1924 0
-269 -1925 0
-270 -1926 0
-262 -1945 0
-263 -1946 0
-264 -1947 0
-265 -1948 0
-266 -1949 0
-267 -1950 0
-268 -1951 0
-269 -1952 0
-270 -1953 0
-262 -2026 0
-263 -2027 0
-264 -2028 0
-265 -2029 0
-266 -2030 0
-267 -2031 0
-268 -2032 0
-269 -2033 0
-270 -2034 0
-262 -2260 0
-263 -2261 0
-264 -2262 0
-265 -2263 0
-266 -2264 0
-267 -2265 0
-268 -2266 0
-269 -2267 0
-270 -2268 0
-262 -2269 0
-263 -2270 0
-264 -2271 0
-265 -2272 0
-266 -2273 0
-267 -2274 0
-268 -2275 0
-269 -2276 0
-270 -2277 0
-262 -2305 0
-263 -2306 0
-264 -2307 0
-265 -2308 0
-266 -2309 0
-267 -2310 0
-268 -2311 0
-269 -2312 0
-270 -2313 0
-262 -2431 0
-263 -2432 0
-264 -2433 0
-265 -2434 0
-266 -2435 0
-267 -2436 0
-268 -2437 0
-269 -2438 0
-270 -2439 0
-262 -2557 0
-263 -2558 0
-264 -2559 0
-265 -2560 0
-266 -2561 0
-267 -2562 0
-268 -2563 0
-269 -2564 0
-270 -2565 0
-262 -2584 0
-263 -2585 0
-264 -2586 0
-265 -2587 0
-266 -2588 0
-267 -2589 0
-268 -2590 0
-269 -2591 0
-270 -2592 0
-262 -2674 0
-263 -2675 0
-264 -2676 0
-265 -2677 0
-266 -2678 0
-267 -2679 0
-268 -2680 0
-269 -2681 0
-270 -2682 0
-262 -2701 0
-263 -2702 0
-264 -2703 0
-265 -2704 0
-266 -2705 0
-267 -2706 0
-268 -2707 0
-269 -2708 0
-270 -2709 0
-262 -2800 0
-263 -2801 0
-264 -2802 0
-265 -2803 0
-266 -2804 0
-267 -2805 0
-268 -2806 0
-269 -2807 0
-270 -2808 0
-271 -334 0
-272 -335 0
-273 -336 0
-274 -337 0
-275 -338 0
-276 -339 0
-277 -340 0
-278 -341 0
-279 -342 0
-271 -397 0
-272 -398 0
-273 -399 0
-274 -400 0
-275 -401 0
-276 -402 0
-277 -403 0
-278 -404 0
-279 -405 0
-271 -415 0
-272 -416 0
-273 -417 0
-274 -418 0
-275 -419 0
-276 -420 0
-277 -421 0
-278 -422 0
-279 -423 0
-271 -460 0
-272 -461 0
-273 -462 0
-274 -463 0
-275 -464 0
-276 -465 0
-277 -466 0
-278 -467 0
-279 -468 0
-271 -469 0
-272 -470 0
-273 -471 0
-274 -472 0
-275 -473 0
-276 -474 0
-277 -475 0
-278 -476 0
-279 -477 0
-271 -496 0
-272 -497 0
-273 -498 0
-274 -499 0
-275 -500 0
-276 -501 0
-277 -502 0
-278 -503 0
-279 -504 0
-271 -694 0
-272 -695 0
-273 -696 0
-274 -697 0
-275 -698 0
-276 -699 0
-277 -700 0
-278 -701 0
-279 -702 0
-271 -721 0
-272 -722 0
-273 -723 0
-274 -724 0
-275 -725 0
-276 -726 0
-277 -727 0
-278 -728 0
-279 -729 0
-271 -766 0
-272 -767 0
-273 -768 0
-274 -769 0
-275 -770 0
-276 -771 0
-277 -772 0
-278 -773 0
-279 -774 0
-271 -811 0
-272 -812 0
-273 -813 0
-274 -814 0
-275 -815 0
-276 -816 0
-277 -817 0
-278 -818 0
-279 -819 0
-271 -847 0
-272 -848 0
-273 -849 0
-274 -850 0
-275 -851 0
-276 -852 0
-277 -853 0
-278 -854 0
-279 -855 0
-271 -865 0
-272 -866 0
-273 -867 0
-274 -868 0
-275 -869 0
-276 -870 0
-277 -871 0
-278 -872 0
-279 -873 0
-271 -874 0
-272 -875 0
-273 -876 0
-274 -877 0
-275 -878 0
-276 -879 0
-277 -880 0
-278 -881 0
-279 -882 0
-271 -928 0
-272 -929 0
-273 -930 0
-274 -931 0
-275 -932 0
-276 -933 0
-277 -934 0
-278 -935 0
-279 -936 0
-271 -973 0
-272 -974 0
-273 -975 0
-274 -976 0
-275 -977 0
-276 -978 0
-277 -979 0
-278 -980 0
-279 -981 0
-271 -1018 0
-272 -1019 0
-273 -1020 0
-274 -1021 0
-275 -1022 0
-276 -1023 0
-277 -1024 0
-278 -1025 0
-279 -1026 0
-271 -1045 0
-272 -1046 0
-273 -1047 0
-274 -1048 0
-275 -1049 0
-276 -1050 0
-277 -1051 0
-278 -1052 0
-279 -1053 0
-271 -1144 0
-272 -1145 0
-273 -1146 0
-274 -1147 0
-275 -1148 0
-276 -1149 0
-277 -1150 0
-278 -1151 0
-279 -1152 0
-271 -1180 0
-272 -1181 0
-273 -1182 0
-274 -1183 0
-275 -1184 0
-276 -1185 0
-277 -1186 0
-278 -1187 0
-279 -1188 0
-271 -1234 0
-272 -1235 0
-273 -1236 0
-274 -1237 0
-275 -1238 0
-276 -1239 0
-277 -1240 0
-278 -1241 0
-279 -1242 0
-271 -1261 0
-272 -1262 0
-273 -1263 0
-274 -1264 0
-275 -1265 0
-276 -1266 0
-277 -1267 0
-278 -1268 0
-279 -1269 0
-271 -1297 0
-272 -1298 0
-273 -1299 0
-274 -1300 0
-275 -1301 0
-276 -1302 0
-277 -1303 0
-278 -1304 0
-279 -1305 0
-271 -1324 0
-272 -1325 0
-273 -1326 0
-274 -1327 0
-275 -1328 0
-276 -1329 0
-277 -1330 0
-278 -1331 0
-279 -1332 0
-271 -1360 0
-272 -1361 0
-273 -1362 0
-274 -1363 0
-275 -1364 0
-276 -1365 0
-277 -1366 0
-278 -1367 0
-279 -1368 0
-271 -1405 0
-272 -1406 0
-273 -1407 0
-274 -1408 0
-275 -1409 0
-276 -1410 0
-277 -1411 0
-278 -1412 0
-279 -1413 0
-271 -1450 0
-272 -1451 0
-273 -1452 0
-274 -1453 0
-275 -1454 0
-276 -1455 0
-277 -1456 0
-278 -1457 0
-279 -1458 0
-271 -1585 0
-272 -1586 0
-273 -1587 0
-274 -1588 0
-275 -1589 0
-276 -1590 0
-277 -1591 0
-278 -1592 0
-279 -1593 0
-271 -1747 0
-272 -1748 0
-273 -1749 0
-274 -1750 0
-275 -1751 0
-276 -1752 0
-277 -1753 0
-278 -1754 0
-279 -1755 0
-271 -1783 0
-272 -1784 0
-273 -1785 0
-274 -1786 0
-275 -1787 0
-276 -1788 0
-277 -1789 0
-278 -1790 0
-279 -1791 0
-271 -1801 0
-272 -1802 0
-273 -1803 0
-274 -1804 0
-275 -1805 0
-276 -1806 0
-277 -1807 0
-278 -1808 0
-279 -1809 0
-271 -2080 0
-272 -2081 0
-273 -2082 0
-274 -2083 0
-275 -2084 0
-276 -2085 0
-277 -2086 0
-278 -2087 0
-279 -2088 0
-271 -2134 0
-272 -2135 0
-273 -2136 0
-274 -2137 0
-275 -2138 0
-276 -2139 0
-277 -2140 0
-278 -2141 0
-279 -2142 0
-271 -2152 0
-272 -2153 0
-273 -2154 0
-274 -2155 0
-275 -2156 0
-276 -2157 0
-277 -2158 0
-278 -2159 0
-279 -2160 0
-271 -2233 0
-272 -2234 0
-273 -2235 0
-274 -2236 0
-275 -2237 0
-276 -2238 0
-277 -2239 0
-278 -2240 0
-279 -2241 0
-271 -2332 0
-272 -2333 0
-273 -2334 0
-274 -2335 0
-275 -2336 0
-276 -2337 0
-277 -2338 0
-278 -2339 0
-279 -2340 0
-271 -2341 0
-272 -2342 0
-273 -2343 0
-274 -2344 0
-275 -2345 0
-276 -2346 0
-277 -2347 0
-278 -2348 0
-279 -2349 0
-271 -2368 0
-272 -2369 0
-273 -2370 0
-274 -2371 0
-275 -2372 0
-276 -2373 0
-277 -2374 0
-278 -2375 0
-279 -2376 0
-271 -2422 0
-272 -2423 0
-273 -2424 0
-274 -2425 0
-275 -2426 0
-276 -2427 0
-277 -2428 0
-278 -2429 0
-279 -2430 0
-271 -2611 0
-272 -2612 0
-273 -2613 0
-274 -2614 0
-275 -2615 0
-276 -2616 0
-277 -2617 0
-278 -2618 0
-279 -2619 0
-271 -2629 0
-272 -2630 0
-273 -2631 0
-274 -2632 0
-275 -2633 0
-276 -2634 0
-277 -2635 0
-278 -2636 0
-279 -2637 0
-271 -2674 0
-272 -2675 0
-273 -2676 0
-274 -2677 0
-275 -2678 0
-276 -2679 0
-277 -2680 0
-278 -2681 0
-279 -2682 0
-271 -2719 0
-272 -2720 0
-273 -2721 0
-274 -2722 0
-275 -2723 0
-276 -2724 0
-277 -2725 0
-278 -2726 0
-279 -2727 0
-271 -2818 0
-272 -2819 0
-273 -2820 0
-274 -2821 0
-275 -2822 0
-276 -2823 0
-277 -2824 0
-278 -2825 0
-279 -2826 0
-280 -298 0
-281 -299 0
-282 -300 0
-283 -301 0
-284 -302 0
-285 -303 0
-286 -304 0
-287 -305 0
-288 -306 0
-280 -307 0
-281 -308 0
-282 -309 0
-283 -310 0
-284 -311 0
-285 -312 0
-286 -313 0
-287 -314 0
-288 -315 0
-280 -352 0
-281 -353 0
-282 -354 0
-283 -355 0
-284 -356 0
-285 -357 0
-286 -358 0
-287 -359 0
-288 -360 0
-280 -361 0
-281 -362 0
-282 -363 0
-283 -364 0
-284 -365 0
-285 -366 0
-286 -367 0
-287 -368 0
-288 -369 0
-280 -379 0
-281 -380 0
-282 -381 0
-283 -382 0
-284 -383 0
-285 -384 0
-286 -385 0
-287 -386 0
-288 -387 0
-280 -397 0
-281 -398 0
-282 -399 0
-283 -400 0
-284 -401 0
-285 -402 0
-286 -403 0
-287 -404 0
-288 -405 0
-280 -406 0
-281 -407 0
-282 -408 0
-283 -409 0
-284 -410 0
-285 -411 0
-286 -412 0
-287 -413 0
-288 -414 0
-280 -424 0
-281 -425 0
-282 -426 0
-283 -427 0
-284 -428 0
-285 -429 0
-286 -430 0
-287 -431 0
-288 -432 0
-280 -442 0
-281 -443 0
-282 -444 0
-283 -445 0
-284 -446 0
-285 -447 0
-286 -448 0
-287 -449 0
-288 -450 0
-280 -451 0
-281 -452 0
-282 -453 0
-283 -454 0
-284 -455 0
-285 -456 0
-286 -457 0
-287 -458 0
-288 -459 0
-280 -487 0
-281 -488 0
-282 -489 0
-283 -490 0
-284 -491 0
-285 -492 0
-286 -493 0
-287 -494 0
-288 -495 0
-280 -505 0
-281 -506 0
-282 -507 0
-283 -508 0
-284 -509 0
-285 -510 0
-286 -511 0
-287 -512 0
-288 -513 0
-280 -559 0
-281 -560 0
-282 -561 0
-283 -562 0
-284 -563 0
-285 -564 0
-286 -565 0
-287 -566 0
-288 -567 0
-280 -577 0
-281 -578 0
-282 -579 0
-283 -580 0
-284 -581 0
-285 -582 0
-286 -583 0
-287 -584 0
-288 -585 0
-280 -667 0
-281 -668 0
-282 -669 0
-283 -670 0
-284 -671 0
-285 -672 0
-286 -673 0
-287 -674 0
-288 -675 0
-280 -712 0
-281 -713 0
-282 -714 0
-283 -715 0
-284 -716 0
-285 -717 0
-286 -718 0
-287 -719 0
-288 -720 0
-280 -766 0
-281 -767 0
-282 -768 0
-283 -769 0
-284 -770 0
-285 -771 0
-286 -772 0
-287 -773 0
-288 -774 0
-280 -937 0
-281 -938 0
-282 -939 0
-283 -940 0
-284 -941 0
-285 -942 0
-286 -943 0
-287 -944 0
-288 -945 0
-280 -955 0
-281 -956 0
-282 -957 0
-283 -958 0
-284 -959 0
-285 -960 0
-286 -961 0
-287 -962 0
-288 -963 0
-280 -973 0
-281 -974 0
-282 -975 0
-283 -976 0
-284 -977 0
-285 -978 0
-286 -979 0
-287 -980 0
-288 -981 0
-280 -1009 0
-281 -1010 0
-282 -1011 0
-283 -1012 0
-284 -1013 0
-285 -1014 0
-286 -1015 0
-287 -1016 0
-288 -1017 0
-280 -1054 0
-281 -1055 0
-282 -1056 0
-283 -1057 0
-284 -1058 0
-285 -1059 0
-286 -1060 0
-287 -1061 0
-288 -1062 0
-280 -1099 0
-281 -1100 0
-282 -1101 0
-283 -1102 0
-284 -1103 0
-285 -1104 0
-286 -1105 0
-287 -1106 0
-288 -1107 0
-280 -1153 0
-281 -1154 0
-282 -1155 0
-283 -1156 0
-284 -1157 0
-285 -1158 0
-286 -1159 0
-287 -1160 0
-288 -1161 0
-280 -1189 0
-281 -1190 0
-282 -1191 0
-283 -1192 0
-284 -1193 0
-285 -1194 0
-286 -1195 0
-287 -1196 0
-288 -1197 0
-280 -1198 0
-281 -1199 0
-282 -1200 0
-283 -1201 0
-284 -1202 0
-285 -1203 0
-286 -1204 0
-287 -1205 0
-288 -1206 0
-280 -1216 0
-281 -1217 0
-282 -1218 0
-283 -1219 0
-284 -1220 0
-285 -1221 0
-286 -1222 0
-287 -1223 0
-288 -1224 0
-280 -1270 0
-281 -1271 0
-282 -1272 0
-283 -1273 0
-284 -1274 0
-285 -1275 0
-286 -1276 0
-287 -1277 0
-288 -1278 0
-280 -1306 0
-281 -1307 0
-282 -1308 0
-283 -1309 0
-284 -1310 0
-285 -1311 0
-286 -1312 0
-287 -1313 0
-288 -1314 0
-280 -1333 0
-281 -1334 0
-282 -1335 0
-283 -1336 0
-284 -1337 0
-285 -1338 0
-286 -1339 0
-287 -1340 0
-288 -1341 0
-280 -1423 0
-281 -1424 0
-282 -1425 0
-283 -1426 0
-284 -1427 0
-285 -1428 0
-286 -1429 0
-287 -1430 0
-288 -1431 0
-280 -1486 0
-281 -1487 0
-282 -1488 0
-283 -1489 0
-284 -1490 0
-285 -1491 0
-286 -1492 0
-287 -1493 0
-288 -1494 0
-280 -1522 0
-281 -1523 0
-282 -1524 0
-283 -1525 0
-284 -1526 0
-285 -1527 0
-286 -1528 0
-287 -1529 0
-288 -1530 0
-280 -1558 0
-281 -1559 0
-282 -1560 0
-283 -1561 0
-284 -1562 0
-285 -1563 0
-286 -1564 0
-287 -1565 0
-288 -1566 0
-280 -1585 0
-281 -1586 0
-282 -1587 0
-283 -1588 0
-284 -1589 0
-285 -1590 0
-286 -1591 0
-287 -1592 0
-288 -1593 0
-280 -1612 0
-281 -1613 0
-282 -1614 0
-283 -1615 0
-284 -1616 0
-285 -1617 0
-286 -1618 0
-287 -1619 0
-288 -1620 0
-280 -1657 0
-281 -1658 0
-282 -1659 0
-283 -1660 0
-284 -1661 0
-285 -1662 0
-286 -1663 0
-287 -1664 0
-288 -1665 0
-280 -1693 0
-281 -1694 0
-282 -1695 0
-283 -1696 0
-284 -1697 0
-285 -1698 0
-286 -1699 0
-287 -1700 0
-288 -1701 0
-280 -1702 0
-281 -1703 0
-282 -1704 0
-283 -1705 0
-284 -1706 0
-285 -1707 0
-286 -1708 0
-287 -1709 0
-288 -1710 0
-280 -1720 0
-281 -1721 0
-282 -1722 0
-283 -1723 0
-284 -1724 0
-285 -1725 0
-286 -1726 0
-287 -1727 0
-288 -1728 0
-280 -1765 0
-281 -1766 0
-282 -1767 0
-283 -1768 0
-284 -1769 0
-285 -1770 0
-286 -1771 0
-287 -1772 0
-288 -1773 0
-280 -1792 0
-281 -1793 0
-282 -1794 0
-283 -1795 0
-284 -1796 0
-285 -1797 0
-286 -1798 0
-287 -1799 0
-288 -1800 0
-280 -1864 0
-281 -1865 0
-282 -1866 0
-283 -1867 0
-284 -1868 0
-285 -1869 0
-286 -1870 0
-287 -1871 0
-288 -1872 0
-280 -1882 0
-281 -1883 0
-282 -1884 0
-283 -1885 0
-284 -1886 0
-285 -1887 0
-286 -1888 0
-287 -1889 0
-288 -1890 0
-280 -2044 0
-281 -2045 0
-282 -2046 0
-283 -2047 0
-284 -2048 0
-285 -2049 0
-286 -2050 0
-287 -2051 0
-288 -2052 0
-280 -2107 0
-281 -2108 0
-282 -2109 0
-283 -2110 0
-284 -2111 0
-285 -2112 0
-286 -2113 0
-287 -2114 0
-288 -2115 0
-280 -2116 0
-281 -2117 0
-282 -2118 0
-283 -2119 0
-284 -2120 0
-285 -2121 0
-286 -2122 0
-287 -2123 0
-288 -2124 0
-280 -2143 0
-281 -2144 0
-282 -2145 0
-283 -2146 0
-284 -2147 0
-285 -2148 0
-286 -2149 0
-287 -2150 0
-288 -2151 0
-280 -2161 0
-281 -2162 0
-282 -2163 0
-283 -2164 0
-284 -2165 0
-285 -2166 0
-286 -2167 0
-287 -2168 0
-288 -2169 0
-280 -2206 0
-281 -2207 0
-282 -2208 0
-283 -2209 0
-284 -2210 0
-285 -2211 0
-286 -2212 0
-287 -2213 0
-288 -2214 0
-280 -2314 0
-281 -2315 0
-282 -2316 0
-283 -2317 0
-284 -2318 0
-285 -2319 0
-286 -2320 0
-287 -2321 0
-288 -2322 0
-280 -2359 0
-281 -2360 0
-282 -2361 0
-283 -2362 0
-284 -2363 0
-285 -2364 0
-286 -2365 0
-287 -2366 0
-288 -2367 0
-280 -2431 0
-281 -2432 0
-282 -2433 0
-283 -2434 0
-284 -2435 0
-285 -2436 0
-286 -2437 0
-287 -2438 0
-288 -2439 0
-280 -2458 0
-281 -2459 0
-282 -2460 0
-283 -2461 0
-284 -2462 0
-285 -2463 0
-286 -2464 0
-287 -2465 0
-288 -2466 0
-280 -2485 0
-281 -2486 0
-282 -2487 0
-283 -2488 0
-284 -2489 0
-285 -2490 0
-286 -2491 0
-287 -2492 0
-288 -2493 0
-280 -2503 0
-281 -2504 0
-282 -2505 0
-283 -2506 0
-284 -2507 0
-285 -2508 0
-286 -2509 0
-287 -2510 0
-288 -2511 0
-280 -2521 0
-281 -2522 0
-282 -2523 0
-283 -2524 0
-284 -2525 0
-285 -2526 0
-286 -2527 0
-287 -2528 0
-288 -2529 0
-280 -2584 0
-281 -2585 0
-282 -2586 0
-283 -2587 0
-284 -2588 0
-285 -2589 0
-286 -2590 0
-287 -2591 0
-288 -2592 0
-280 -2683 0
-281 -2684 0
-282 -2685 0
-283 -2686 0
-284 -2687 0
-285 -2688 0
-286 -2689 0
-287 -2690 0
-288 -2691 0
-280 -2728 0
-281 -2729 0
-282 -2730 0
-283 -2731 0
-284 -2732 0
-285 -2733 0
-286 -2734 0
-287 -2735 0
-288 -2736 0
-280 -2737 0
-281 -2738 0
-282 -2739 0
-283 -2740 0
-284 -2741 0
-285 -2742 0
-286 -2743 0
-287 -2744 0
-288 -2745 0
-280 -2881 0
-281 -2882 0
-282 -2883 0
-283 -2884 0
-284 -2885 0
-285 -2886 0
-286 -2887 0
-287 -2888 0
-288 -2889 0
-289 -316 0
-290 -317 0
-291 -318 0
-292 -319 0
-293 -320 0
-294 -321 0
-295 -322 0
-296 -323 0
-297 -324 0
-289 -397 0
-290 -398 0
-291 -399 0
-292 -400 0
-293 -401 0
-294 -402 0
-295 -403 0
-296 -404 0
-297 -405 0
-289 -406 0
-290 -407 0
-291 -408 0
-292 -409 0
-293 -410 0
-294 -411 0
-295 -412 0
-296 -413 0
-297 -414 0
-289 -460 0
-290 -461 0
-291 -462 0
-292 -463 0
-293 -464 0
-294 -465 0
-295 -466 0
-296 -467 0
-297 -468 0
-289 -469 0
-290 -470 0
-291 -471 0
-292 -472 0
-293 -473 0
-294 -474 0
-295 -475 0
-296 -476 0
-297 -477 0
-289 -505 0
-290 -506 0
-291 -507 0
-292 -508 0
-293 -509 0
-294 -510 0
-295 -511 0
-296 -512 0
-297 -513 0
-289 -667 0
-290 -668 0
-291 -669 0
-292 -670 0
-293 -671 0
-294 -672 0
-295 -673 0
-296 -674 0
-297 -675 0
-289 -721 0
-290 -722 0
-291 -723 0
-292 -724 0
-293 -725 0
-294 -726 0
-295 -727 0
-296 -728 0
-297 -729 0
-289 -766 0
-290 -767 0
-291 -768 0
-292 -769 0
-293 -770 0
-294 -771 0
-295 -772 0
-296 -773 0
-297 -774 0
-289 -811 0
-290 -812 0
-291 -813 0
-292 -814 0
-293 -815 0
-294 -816 0
-295 -817 0
-296 -818 0
-297 -819 0
-289 -820 0
-290 -821 0
-291 -822 0
-292 -823 0
-293 -824 0
-294 -825 0
-295 -826 0
-296 -827 0
-297 -828 0
-289 -874 0
-290 -875 0
-291 -876 0
-292 -877 0
-293 -878 0
-294 -879 0
-295 -880 0
-296 -881 0
-297 -882 0
-289 -901 0
-290 -902 0
-291 -903 0
-292 -904 0
-293 -905 0
-294 -906 0
-295 -907 0
-296 -908 0
-297 -909 0
-289 -910 0
-290 -911 0
-291 -912 0
-292 -913 0
-293 -914 0
-294 -915 0
-295 -916 0
-296 -917 0
-297 -918 0
-289 -1000 0
-290 -1001 0
-291 -1002 0
-292 -1003 0
-293 -1004 0
-294 -1005 0
-295 -1006 0
-296 -1007 0
-297 -1008 0
-289 -1027 0
-290 -1028 0
-291 -1029 0
-292 -1030 0
-293 -1031 0
-294 -1032 0
-295 -1033 0
-296 -1034 0
-297 -1035 0
-289 -1099 0
-290 -1100 0
-291 -1101 0
-292 -1102 0
-293 -1103 0
-294 -1104 0
-295 -1105 0
-296 -1106 0
-297 -1107 0
-289 -1126 0
-290 -1127 0
-291 -1128 0
-292 -1129 0
-293 -1130 0
-294 -1131 0
-295 -1132 0
-296 -1133 0
-297 -1134 0
-289 -1144 0
-290 -1145 0
-291 -1146 0
-292 -1147 0
-293 -1148 0
-294 -1149 0
-295 -1150 0
-296 -1151 0
-297 -1152 0
-289 -1162 0
-290 -1163 0
-291 -1164 0
-292 -1165 0
-293 -1166 0
-294 -1167 0
-295 -1168 0
-296 -1169 0
-297 -1170 0
-289 -1207 0
-290 -1208 0
-291 -1209 0
-292 -1210 0
-293 -1211 0
-294 -1212 0
-295 -1213 0
-296 -1214 0
-297 -1215 0
-289 -1243 0
-290 -1244 0
-291 -1245 0
-292 -1246 0
-293 -1247 0
-294 -1248 0
-295 -1249 0
-296 -1250 0
-297 -1251 0
-289 -1270 0
-290 -1271 0
-291 -1272 0
-292 -1273 0
-293 -1274 0
-294 -1275 0
-295 -1276 0
-296 -1277 0
-297 -1278 0
-289 -1279 0
-290 -1280 0
-291 -1281 0
-292 -1282 0
-293 -1283 0
-294 -1284 0
-295 -1285 0
-296 -1286 0
-297 -1287 0
-289 -1405 0
-290 -1406 0
-291 -1407 0
-292 -1408 0
-293 -1409 0
-294 -1410 0
-295 -1411 0
-296 -1412 0
-297 -1413 0
-289 -1441 0
-290 -1442 0
-291 -1443 0
-292 -1444 0
-293 -1445 0
-294 -1446 0
-295 -1447 0
-296 -1448 0
-297 -1449 0
-289 -1558 0
-290 -1559 0
-291 -1560 0
-292 -1561 0
-293 -1562 0
-294 -1563 0
-295 -1564 0
-296 -1565 0
-297 -1566 0
-289 -1639 0
-290 -1640 0
-291 -1641 0
-292 -1642 0
-293 -1643 0
-294 -1644 0
-295 -1645 0
-296 -1646 0
-297 -1647 0
-289 -1675 0
-290 -1676 0
-291 -1677 0
-292 -1678 0
-293 -1679 0
-294 -1680 0
-295 -1681 0
-296 -1682 0
-297 -1683 0
-289 -1729 0
-290 -1730 0
-291 -1731 0
-292 -1732 0
-293 -1733 0
-294 -1734 0
-295 -1735 0
-296 -1736 0
-297 -1737 0
-289 -1810 0
-290 -1811 0
-291 -1812 0
-292 -1813 0
-293 -1814 0
-294 -1815 0
-295 -1816 0
-296 -1817 0
-297 -1818 0
-289 -1972 0
-290 -1973 0
-291 -1974 0
-292 -1975 0
-293 -1976 0
-294 -1977 0
-295 -1978 0
-296 -1979 0
-297 -1980 0
-289 -1981 0
-290 -1982 0
-291 -1983 0
-292 -1984 0
-293 -1985 0
-294 -1986 0
-295 -1987 0
-296 -1988 0
-297 -1989 0
-289 -1990 0
-290 -1991 0
-291 -1992 0
-292 -1993 0
-293 -1994 0
-294 -1995 0
-295 -1996 0
-296 -1997 0
-297 -1998 0
-289 -2251 0
-290 -2252 0
-291 -2253 0
-292 -2254 0
-293 -2255 0
-294 -2256 0
-295 -2257 0
-296 -2258 0
-297 -2259 0
-289 -2287 0
-290 -2288 0
-291 -2289 0
-292 -2290 0
-293 -2291 0
-294 -2292 0
-295 -2293 0
-296 -2294 0
-297 -2295 0
-289 -2305 0
-290 -2306 0
-291 -2307 0
-292 -2308 0
-293 -2309 0
-294 -2310 0
-295 -2311 0
-296 -2312 0
-297 -2313 0
-289 -2386 0
-290 -2387 0
-291 -2388 0
-292 -2389 0
-293 -2390 0
-294 -2391 0
-295 -2392 0
-296 -2393 0
-297 -2394 0
-289 -2539 0
-290 -2540 0
-291 -2541 0
-292 -2542 0
-293 -2543 0
-294 -2544 0
-295 -2545 0
-296 -2546 0
-297 -2547 0
-289 -2575 0
-290 -2576 0
-291 -2577 0
-292 -2578 0
-293 -2579 0
-294 -2580 0
-295 -2581 0
-296 -2582 0
-297 -2583 0
-289 -2674 0
-290 -2675 0
-291 -2676 0
-292 -2677 0
-293 -2678 0
-294 -2679 0
-295 -2680 0
-296 -2681 0
-297 -2682 0
-289 -2683 0
-290 -2684 0
-291 -2685 0
-292 -2686 0
-293 -2687 0
-294 -2688 0
-295 -2689 0
-296 -2690 0
-297 -2691 0
-289 -2755 0
-290 -2756 0
-291 -2757 0
-292 -2758 0
-293 -2759 0
-294 -2760 0
-295 -2761 0
-296 -2762 0
-297 -2763 0
-298 -325 0
-299 -326 0
-300 -327 0
-301 -328 0
-302 -329 0
-303 -330 0
-304 -331 0
-305 -332 0
-306 -333 0
-298 -352 0
-299 -353 0
-300 -354 0
-301 -355 0
-302 -356 0
-303 -357 0
-304 -358 0
-305 -359 0
-306 -360 0
-298 -361 0
-299 -362 0
-300 -363 0
-301 -364 0
-302 -365 0
-303 -366 0
-304 -367 0
-305 -368 0
-306 -369 0
-298 -388 0
-299 -389 0
-300 -390 0
-301 -391 0
-302 -392 0
-303 -393 0
-304 -394 0
-305 -395 0
-306 -396 0
-298 -397 0
-299 -398 0
-300 -399 0
-301 -400 0
-302 -401 0
-303 -402 0
-304 -403 0
-305 -404 0
-306 -405 0
-298 -415 0
-299 -416 0
-300 -417 0
-301 -418 0
-302 -419 0
-303 -420 0
-304 -421 0
-305 -422 0
-306 -423 0
-298 -433 0
-299 -434 0
-300 -435 0
-301 -436 0
-302 -437 0
-303 -438 0
-304 -439 0
-305 -440 0
-306 -441 0
-298 -442 0
-299 -443 0
-300 -444 0
-301 -445 0
-302 -446 0
-303 -447 0
-304 -448 0
-305 -449 0
-306 -450 0
-298 -451 0
-299 -452 0
-300 -453 0
-301 -454 0
-302 -455 0
-303 -456 0
-304 -457 0
-305 -458 0
-306 -459 0
-298 -496 0
-299 -497 0
-300 -498 0
-301 -499 0
-302 -500 0
-303 -501 0
-304 -502 0
-305 -503 0
-306 -504 0
-298 -514 0
-299 -515 0
-300 -516 0
-301 -517 0
-302 -518 0
-303 -519 0
-304 -520 0
-305 -521 0
-306 -522 0
-298 -568 0
-299 -569 0
-300 -570 0
-301 -571 0
-302 -572 0
-303 -573 0
-304 -574 0
-305 -575 0
-306 -576 0
-298 -577 0
-299 -578 0
-300 -579 0
-301 -580 0
-302 -581 0
-303 -582 0
-304 -583 0
-305 -584 0
-306 -585 0
-298 -676 0
-299 -677 0
-300 -678 0
-301 -679 0
-302 -680 0
-303 -681 0
-304 -682 0
-305 -683 0
-306 -684 0
-298 -703 0
-299 -704 0
-300 -705 0
-301 -706 0
-302 -707 0
-303 -708 0
-304 -709 0
-305 -710 0
-306 -711 0
-298 -766 0
-299 -767 0
-300 -768 0
-301 -769 0
-302 -770 0
-303 -771 0
-304 -772 0
-305 -773 0
-306 -774 0
-298 -919 0
-299 -920 0
-300 -921 0
-301 -922 0
-302 -923 0
-303 -924 0
-304 -925 0
-305 -926 0
-306 -927 0
-298 -946 0
-299 -947 0
-300 -948 0
-301 -949 0
-302 -950 0
-303 -951 0
-304 -952 0
-305 -953 0
-306 -954 0
-298 -973 0
-299 -974 0
-300 -975 0
-301 -976 0
-302 -977 0
-303 -978 0
-304 -979 0
-305 -980 0
-306 -981 0
-298 -1000 0
-299 -1001 0
-300 -1002 0
-301 -1003 0
-302 -1004 0
-303 -1005 0
-304 -1006 0
-305 -1007 0
-306 -1008 0
-298 -1045 0
-299 -1046 0
-300 -1047 0
-301 -1048 0
-302 -1049 0
-303 -1050 0
-304 -1051 0
-305 -1052 0
-306 -1053 0
-298 -1054 0
-299 -1055 0
-300 -1056 0
-301 -1057 0
-302 -1058 0
-303 -1059 0
-304 -1060 0
-305 -1061 0
-306 -1062 0
-298 -1090 0
-299 -1091 0
-300 -1092 0
-301 -1093 0
-302 -1094 0
-303 -1095 0
-304 -1096 0
-305 -1097 0
-306 -1098 0
-298 -1117 0
-299 -1118 0
-300 -1119 0
-301 -1120 0
-302 -1121 0
-303 -1122 0
-304 -1123 0
-305 -1124 0
-306 -1125 0
-298 -1216 0
-299 -1217 0
-300 -1218 0
-301 -1219 0
-302 -1220 0
-303 -1221 0
-304 -1222 0
-305 -1223 0
-306 -1224 0
-298 -1225 0
-299 -1226 0
-300 -1227 0
-301 -1228 0
-302 -1229 0
-303 -1230 0
-304 -1231 0
-305 -1232 0
-306 -1233 0
-298 -1315 0
-299 -1316 0
-300 -1317 0
-301 -1318 0
-302 -1319 0
-303 -1320 0
-304 -1321 0
-305 -1322 0
-306 -1323 0
-298 -1360 0
-299 -1361 0
-300 -1362 0
-301 -1363 0
-302 -1364 0
-303 -1365 0
-304 -1366 0
-305 -1367 0
-306 -1368 0
-298 -1396 0
-299 -1397 0
-300 -1398 0
-301 -1399 0
-302 -1400 0
-303 -1401 0
-304 -1402 0
-305 -1403 0
-306 -1404 0
-298 -1405 0
-299 -1406 0
-300 -1407 0
-301 -1408 0
-302 -1409 0
-303 -1410 0
-304 -1411 0
-305 -1412 0
-306 -1413 0
-298 -1495 0
-299 -1496 0
-300 -1497 0
-301 -1498 0
-302 -1499 0
-303 -1500 0
-304 -1501 0
-305 -1502 0
-306 -1503 0
-298 -1531 0
-299 -1532 0
-300 -1533 0
-301 -1534 0
-302 -1535 0
-303 -1536 0
-304 -1537 0
-305 -1538 0
-306 -1539 0
-298 -1567 0
-299 -1568 0
-300 -1569 0
-301 -1570 0
-302 -1571 0
-303 -1572 0
-304 -1573 0
-305 -1574 0
-306 -1575 0
-298 -1576 0
-299 -1577 0
-300 -1578 0
-301 -1579 0
-302 -1580 0
-303 -1581 0
-304 -1582 0
-305 -1583 0
-306 -1584 0
-298 -1603 0
-299 -1604 0
-300 -1605 0
-301 -1606 0
-302 -1607 0
-303 -1608 0
-304 -1609 0
-305 -1610 0
-306 -1611 0
-298 -1666 0
-299 -1667 0
-300 -1668 0
-301 -1669 0
-302 -1670 0
-303 -1671 0
-304 -1672 0
-305 -1673 0
-306 -1674 0
-298 -1684 0
-299 -1685 0
-300 -1686 0
-301 -1687 0
-302 -1688 0
-303 -1689 0
-304 -1690 0
-305 -1691 0
-306 -1692 0
-298 -1702 0
-299 -1703 0
-300 -1704 0
-301 -1705 0
-302 -1706 0
-303 -1707 0
-304 -1708 0
-305 -1709 0
-306 -1710 0
-298 -1711 0
-299 -1712 0
-300 -1713 0
-301 -1714 0
-302 -1715 0
-303 -1716 0
-304 -1717 0
-305 -1718 0
-306 -1719 0
-298 -1756 0
-299 -1757 0
-300 -1758 0
-301 -1759 0
-302 -1760 0
-303 -1761 0
-304 -1762 0
-305 -1763 0
-306 -1764 0
-298 -1801 0
-299 -1802 0
-300 -1803 0
-301 -1804 0
-302 -1805 0
-303 -1806 0
-304 -1807 0
-305 -1808 0
-306 -1809 0
-298 -1828 0
-299 -1829 0
-300 -1830 0
-301 -1831 0
-302 -1832 0
-303 -1833 0
-304 -1834 0
-305 -1835 0
-306 -1836 0
-298 -1891 0
-299 -1892 0
-300 -1893 0
-301 -1894 0
-302 -1895 0
-303 -1896 0
-304 -1897 0
-305 -1898 0
-306 -1899 0
-298 -1900 0
-299 -1901 0
-300 -1902 0
-301 -1903 0
-302 -1904 0
-303 -1905 0
-304 -1906 0
-305 -1907 0
-306 -1908 0
-298 -1927 0
-299 -1928 0
-300 -1929 0
-301 -1930 0
-302 -1931 0
-303 -1932 0
-304 -1933 0
-305 -1934 0
-306 -1935 0
-298 -1954 0
-299 -1955 0
-300 -1956 0
-301 -1957 0
-302 -1958 0
-303 -1959 0
-304 -1960 0
-305 -1961 0
-306 -1962 0
-298 -1999 0
-299 -2000 0
-300 -2001 0
-301 -2002 0
-302 -2003 0
-303 -2004 0
-304 -2005 0
-305 -2006 0
-306 -2007 0
-298 -2080 0
-299 -2081 0
-300 -2082 0
-301 -2083 0
-302 -2084 0
-303 -2085 0
-304 -2086 0
-305 -2087 0
-306 -2088 0
-298 -2098 0
-299 -2099 0
-300 -2100 0
-301 -2101 0
-302 -2102 0
-303 -2103 0
-304 -2104 0
-305 -2105 0
-306 -2106 0
-298 -2296 0
-299 -2297 0
-300 -2298 0
-301 -2299 0
-302 -2300 0
-303 -2301 0
-304 -2302 0
-305 -2303 0
-306 -2304 0
-298 -2377 0
-299 -2378 0
-300 -2379 0
-301 -2380 0
-302 -2381 0
-303 -2382 0
-304 -2383 0
-305 -2384 0
-306 -2385 0
-298 -2422 0
-299 -2423 0
-300 -2424 0
-301 -2425 0
-302 -2426 0
-303 -2427 0
-304 -2428 0
-305 -2429 0
-306 -2430 0
-298 -2449 0
-299 -2450 0
-300 -2451 0
-301 -2452 0
-302 -2453 0
-303 -2454 0
-304 -2455 0
-305 -2456 0
-306 -2457 0
-298 -2485 0
-299 -2486 0
-300 -2487 0
-301 -2488 0
-302 -2489 0
-303 -2490 0
-304 -2491 0
-305 -2492 0
-306 -2493 0
-298 -2503 0
-299 -2504 0
-300 -2505 0
-301 -2506 0
-302 -2507 0
-303 -2508 0
-304 -2509 0
-305 -2510 0
-306 -2511 0
-298 -2530 0
-299 -2531 0
-300 -2532 0
-301 -2533 0
-302 -2534 0
-303 -2535 0
-304 -2536 0
-305 -2537 0
-306 -2538 0
-298 -2629 0
-299 -2630 0
-300 -2631 0
-301 -2632 0
-302 -2633 0
-303 -2634 0
-304 -2635 0
-305 -2636 0
-306 -2637 0
-298 -2692 0
-299 -2693 0
-300 -2694 0
-301 -2695 0
-302 -2696 0
-303 -2697 0
-304 -2698 0
-305 -2699 0
-306 -2700 0
-298 -2710 0
-299 -2711 0
-300 -2712 0
-301 -2713 0
-302 -2714 0
-303 -2715 0
-304 -2716 0
-305 -2717 0
-306 -2718 0
-298 -2764 0
-299 -2765 0
-300 -2766 0
-301 -2767 0
-302 -2768 0
-303 -2769 0
-304 -2770 0
-305 -2771 0
-306 -2772 0
-298 -2890 0
-299 -2891 0
-300 -2892 0
-301 -2893 0
-302 -2894 0
-303 -2895 0
-304 -2896 0
-305 -2897 0
-306 -2898 0
-307 -325 0
-308 -326 0
-309 -327 0
-310 -328 0
-311 -329 0
-312 -330 0
-313 -331 0
-314 -332 0
-315 -333 0
-307 -352 0
-308 -353 0
-309 -354 0
-310 -355 0
-311 -356 0
-312 -357 0
-313 -358 0
-314 -359 0
-315 -360 0
-307 -370 0
-308 -371 0
-309 -372 0
-310 -373 0
-311 -374 0
-312 -375 0
-313 -376 0
-314 -377 0
-315 -378 0
-307 -379 0
-308 -380 0
-309 -381 0
-310 -382 0
-311 -383 0
-312 -384 0
-313 -385 0
-314 -386 0
-315 -387 0
-307 -424 0
-308 -425 0
-309 -426 0
-310 -427 0
-311 -428 0
-312 -429 0
-313 -430 0
-314 -431 0
-315 -432 0
-307 -460 0
-308 -461 0
-309 -462 0
-310 -463 0
-311 -464 0
-312 -465 0
-313 -466 0
-314 -467 0
-315 -468 0
-307 -469 0
-308 -470 0
-309 -471 0
-310 -472 0
-311 -473 0
-312 -474 0
-313 -475 0
-314 -476 0
-315 -477 0
-307 -487 0
-308 -488 0
-309 -489 0
-310 -490 0
-311 -491 0
-312 -492 0
-313 -493 0
-314 -494 0
-315 -495 0
-307 -577 0
-308 -578 0
-309 -579 0
-310 -580 0
-311 -581 0
-312 -582 0
-313 -583 0
-314 -584 0
-315 -585 0
-307 -613 0
-308 -614 0
-309 -615 0
-310 -616 0
-311 -617 0
-312 -618 0
-313 -619 0
-314 -620 0
-315 -621 0
-307 -631 0
-308 -632 0
-309 -633 0
-310 -634 0
-311 -635 0
-312 -636 0
-313 -637 0
-314 -638 0
-315 -639 0
-307 -721 0
-308 -722 0
-309 -723 0
-310 -724 0
-311 -725 0
-312 -726 0
-313 -727 0
-314 -728 0
-315 -729 0
-307 -793 0
-308 -794 0
-309 -795 0
-310 -796 0
-311 -797 0
-312 -798 0
-313 -799 0
-314 -800 0
-315 -801 0
-307 -928 0
-308 -929 0
-309 -930 0
-310 -931 0
-311 -932 0
-312 -933 0
-313 -934 0
-314 -935 0
-315 -936 0
-307 -955 0
-308 -956 0
-309 -957 0
-310 -958 0
-311 -959 0
-312 -960 0
-313 -961 0
-314 -962 0
-315 -963 0
-307 -964 0
-308 -965 0
-309 -966 0
-310 -967 0
-311 -968 0
-312 -969 0
-313 -970 0
-314 -971 0
-315 -972 0
-307 -991 0
-308 -992 0
-309 -993 0
-310 -994 0
-311 -995 0
-312 -996 0
-313 -997 0
-314 -998 0
-315 -999 0
-307 -1072 0
-308 -1073 0
-309 -1074 0
-310 -1075 0
-311 -1076 0
-312 -1077 0
-313 -1078 0
-314 -1079 0
-315 -1080 0
-307 -1108 0
-308 -1109 0
-309 -1110 0
-310 -1111 0
-311 -1112 0
-312 -1113 0
-313 -1114 0
-314 -1115 0
-315 -1116 0
-307 -1135 0
-308 -1136 0
-309 -1137 0
-310 -1138 0
-311 -1139 0
-312 -1140 0
-313 -1141 0
-314 -1142 0
-315 -1143 0
-307 -1162 0
-308 -1163 0
-309 -1164 0
-310 -1165 0
-311 -1166 0
-312 -1167 0
-313 -1168 0
-314 -1169 0
-315 -1170 0
-307 -1171 0
-308 -1172 0
-309 -1173 0
-310 -1174 0
-311 -1175 0
-312 -1176 0
-313 -1177 0
-314 -1178 0
-315 -1179 0
-307 -1180 0
-308 -1181 0
-309 -1182 0
-310 -1183 0
-311 -1184 0
-312 -1185 0
-313 -1186 0
-314 -1187 0
-315 -1188 0
-307 -1189 0
-308 -1190 0
-309 -1191 0
-310 -1192 0
-311 -1193 0
-312 -1194 0
-313 -1195 0
-314 -1196 0
-315 -1197 0
-307 -1234 0
-308 -1235 0
-309 -1236 0
-310 -1237 0
-311 -1238 0
-312 -1239 0
-313 -1240 0
-314 -1241 0
-315 -1242 0
-307 -1243 0
-308 -1244 0
-309 -1245 0
-310 -1246 0
-311 -1247 0
-312 -1248 0
-313 -1249 0
-314 -1250 0
-315 -1251 0
-307 -1279 0
-308 -1280 0
-309 -1281 0
-310 -1282 0
-311 -1283 0
-312 -1284 0
-313 -1285 0
-314 -1286 0
-315 -1287 0
-307 -1360 0
-308 -1361 0
-309 -1362 0
-310 -1363 0
-311 -1364 0
-312 -1365 0
-313 -1366 0
-314 -1367 0
-315 -1368 0
-307 -1414 0
-308 -1415 0
-309 -1416 0
-310 -1417 0
-311 -1418 0
-312 -1419 0
-313 -1420 0
-314 -1421 0
-315 -1422 0
-307 -1423 0
-308 -1424 0
-309 -1425 0
-310 -1426 0
-311 -1427 0
-312 -1428 0
-313 -1429 0
-314 -1430 0
-315 -1431 0
-307 -1450 0
-308 -1451 0
-309 -1452 0
-310 -1453 0
-311 -1454 0
-312 -1455 0
-313 -1456 0
-314 -1457 0
-315 -1458 0
-307 -1495 0
-308 -1496 0
-309 -1497 0
-310 -1498 0
-311 -1499 0
-312 -1500 0
-313 -1501 0
-314 -1502 0
-315 -1503 0
-307 -1585 0
-308 -1586 0
-309 -1587 0
-310 -1588 0
-311 -1589 0
-312 -1590 0
-313 -1591 0
-314 -1592 0
-315 -1593 0
-307 -1666 0
-308 -1667 0
-309 -1668 0
-310 -1669 0
-311 -1670 0
-312 -1671 0
-313 -1672 0
-314 -1673 0
-315 -1674 0
-307 -1720 0
-308 -1721 0
-309 -1722 0
-310 -1723 0
-311 -1724 0
-312 -1725 0
-313 -1726 0
-314 -1727 0
-315 -1728 0
-307 -1738 0
-308 -1739 0
-309 -1740 0
-310 -1741 0
-311 -1742 0
-312 -1743 0
-313 -1744 0
-314 -1745 0
-315 -1746 0
-307 -1756 0
-308 -1757 0
-309 -1758 0
-310 -1759 0
-311 -1760 0
-312 -1761 0
-313 -1762 0
-314 -1763 0
-315 -1764 0
-307 -1801 0
-308 -1802 0
-309 -1803 0
-310 -1804 0
-311 -1805 0
-312 -1806 0
-313 -1807 0
-314 -1808 0
-315 -1809 0
-307 -1810 0
-308 -1811 0
-309 -1812 0
-310 -1813 0
-311 -1814 0
-312 -1815 0
-313 -1816 0
-314 -1817 0
-315 -1818 0
-307 -1891 0
-308 -1892 0
-309 -1893 0
-310 -1894 0
-311 -1895 0
-312 -1896 0
-313 -1897 0
-314 -1898 0
-315 -1899 0
-307 -1936 0
-308 -1937 0
-309 -1938 0
-310 -1939 0
-311 -1940 0
-312 -1941 0
-313 -1942 0
-314 -1943 0
-315 -1944 0
-307 -1954 0
-308 -1955 0
-309 -1956 0
-310 -1957 0
-311 -1958 0
-312 -1959 0
-313 -1960 0
-314 -1961 0
-315 -1962 0
-307 -1990 0
-308 -1991 0
-309 -1992 0
-310 -1993 0
-311 -1994 0
-312 -1995 0
-313 -1996 0
-314 -1997 0
-315 -1998 0
-307 -1999 0
-308 -2000 0
-309 -2001 0
-310 -2002 0
-311 -2003 0
-312 -2004 0
-313 -2005 0
-314 -2006 0
-315 -2007 0
-307 -2026 0
-308 -2027 0
-309 -2028 0
-310 -2029 0
-311 -2030 0
-312 -2031 0
-313 -2032 0
-314 -2033 0
-315 -2034 0
-307 -2080 0
-308 -2081 0
-309 -2082 0
-310 -2083 0
-311 -2084 0
-312 -2085 0
-313 -2086 0
-314 -2087 0
-315 -2088 0
-307 -2098 0
-308 -2099 0
-309 -2100 0
-310 -2101 0
-311 -2102 0
-312 -2103 0
-313 -2104 0
-314 -2105 0
-315 -2106 0
-307 -2305 0
-308 -2306 0
-309 -2307 0
-310 -2308 0
-311 -2309 0
-312 -2310 0
-313 -2311 0
-314 -2312 0
-315 -2313 0
-307 -2332 0
-308 -2333 0
-309 -2334 0
-310 -2335 0
-311 -2336 0
-312 -2337 0
-313 -2338 0
-314 -2339 0
-315 -2340 0
-307 -2377 0
-308 -2378 0
-309 -2379 0
-310 -2380 0
-311 -2381 0
-312 -2382 0
-313 -2383 0
-314 -2384 0
-315 -2385 0
-307 -2395 0
-308 -2396 0
-309 -2397 0
-310 -2398 0
-311 -2399 0
-312 -2400 0
-313 -2401 0
-314 -2402 0
-315 -2403 0
-307 -2422 0
-308 -2423 0
-309 -2424 0
-310 -2425 0
-311 -2426 0
-312 -2427 0
-313 -2428 0
-314 -2429 0
-315 -2430 0
-307 -2467 0
-308 -2468 0
-309 -2469 0
-310 -2470 0
-311 -2471 0
-312 -2472 0
-313 -2473 0
-314 -2474 0
-315 -2475 0
-307 -2494 0
-308 -2495 0
-309 -2496 0
-310 -2497 0
-311 -2498 0
-312 -2499 0
-313 -2500 0
-314 -2501 0
-315 -2502 0
-307 -2512 0
-308 -2513 0
-309 -2514 0
-310 -2515 0
-311 -2516 0
-312 -2517 0
-313 -2518 0
-314 -2519 0
-315 -2520 0
-307 -2521 0
-308 -2522 0
-309 -2523 0
-310 -2524 0
-311 -2525 0
-312 -2526 0
-313 -2527 0
-314 -2528 0
-315 -2529 0
-307 -2548 0
-308 -2549 0
-309 -2550 0
-310 -2551 0
-311 -2552 0
-312 -2553 0
-313 -2554 0
-314 -2555 0
-315 -2556 0
-307 -2566 0
-308 -2567 0
-309 -2568 0
-310 -2569 0
-311 -2570 0
-312 -2571 0
-313 -2572 0
-314 -2573 0
-315 -2574 0
-307 -2575 0
-308 -2576 0
-309 -2577 0
-310 -2578 0
-311 -2579 0
-312 -2580 0
-313 -2581 0
-314 -2582 0
-315 -2583 0
-307 -2584 0
-308 -2585 0
-309 -2586 0
-310 -2587 0
-311 -2588 0
-312 -2589 0
-313 -2590 0
-314 -2591 0
-315 -2592 0
-307 -2737 0
-308 -2738 0
-309 -2739 0
-310 -2740 0
-311 -2741 0
-312 -2742 0
-313 -2743 0
-314 -2744 0
-315 -2745 0
-307 -2746 0
-308 -2747 0
-309 -2748 0
-310 -2749 0
-311 -2750 0
-312 -2751 0
-313 -2752 0
-314 -2753 0
-315 -2754 0
-307 -2755 0
-308 -2756 0
-309 -2757 0
-310 -2758 0
-311 -2759 0
-312 -2760 0
-313 -2761 0
-314 -2762 0
-315 -2763 0
-307 -2791 0
-308 -2792 0
-309 -2793 0
-310 -2794 0
-311 -2795 0
-312 -2796 0
-313 -2797 0
-314 -2798 0
-315 -2799 0
-307 -2800 0
-308 -2801 0
-309 -2802 0
-310 -2803 0
-311 -2804 0
-312 -2805 0
-313 -2806 0
-314 -2807 0
-315 -2808 0
-307 -2809 0
-308 -2810 0
-309 -2811 0
-310 -2812 0
-311 -2813 0
-312 -2814 0
-313 -2815 0
-314 -2816 0
-315 -2817 0
-316 -397 0
-317 -398 0
-318 -399 0
-319 -400 0
-320 -401 0
-321 -402 0
-322 -403 0
-323 -404 0
-324 -405 0
-316 -415 0
-317 -416 0
-318 -417 0
-319 -418 0
-320 -419 0
-321 -420 0
-322 -421 0
-323 -422 0
-324 -423 0
-316 -460 0
-317 -461 0
-318 -462 0
-319 -463 0
-320 -464 0
-321 -465 0
-322 -466 0
-323 -467 0
-324 -468 0
-316 -478 0
-317 -479 0
-318 -480 0
-319 -481 0
-320 -482 0
-321 -483 0
-322 -484 0
-323 -485 0
-324 -486 0
-316 -514 0
-317 -515 0
-318 -516 0
-319 -517 0
-320 -518 0
-321 -519 0
-322 -520 0
-323 -521 0
-324 -522 0
-316 -676 0
-317 -677 0
-318 -678 0
-319 -679 0
-320 -680 0
-321 -681 0
-322 -682 0
-323 -683 0
-324 -684 0
-316 -721 0
-317 -722 0
-318 -723 0
-319 -724 0
-320 -725 0
-321 -726 0
-322 -727 0
-323 -728 0
-324 -729 0
-316 -766 0
-317 -767 0
-318 -768 0
-319 -769 0
-320 -770 0
-321 -771 0
-322 -772 0
-323 -773 0
-324 -774 0
-316 -802 0
-317 -803 0
-318 -804 0
-319 -805 0
-320 -806 0
-321 -807 0
-322 -808 0
-323 -809 0
-324 -810 0
-316 -829 0
-317 -830 0
-318 -831 0
-319 -832 0
-320 -833 0
-321 -834 0
-322 -835 0
-323 -836 0
-324 -837 0
-316 -883 0
-317 -884 0
-318 -885 0
-319 -886 0
-320 -887 0
-321 -888 0
-322 -889 0
-323 -890 0
-324 -891 0
-316 -892 0
-317 -893 0
-318 -894 0
-319 -895 0
-320 -896 0
-321 -897 0
-322 -898 0
-323 -899 0
-324 -900 0
-316 -928 0
-317 -929 0
-318 -930 0
-319 -931 0
-320 -932 0
-321 -933 0
-322 -934 0
-323 -935 0
-324 -936 0
-316 -1009 0
-317 -1010 0
-318 -1011 0
-319 -1012 0
-320 -1013 0
-321 -1014 0
-322 -1015 0
-323 -1016 0
-324 -1017 0
-316 -1027 0
-317 -1028 0
-318 -1029 0
-319 -1030 0
-320 -1031 0
-321 -1032 0
-322 -1033 0
-323 -1034 0
-324 -1035 0
-316 -1045 0
-317 -1046 0
-318 -1047 0
-319 -1048 0
-320 -1049 0
-321 -1050 0
-322 -1051 0
-323 -1052 0
-324 -1053 0
-316 -1063 0
-317 -1064 0
-318 -1065 0
-319 -1066 0
-320 -1067 0
-321 -1068 0
-322 -1069 0
-323 -1070 0
-324 -1071 0
-316 -1144 0
-317 -1145 0
-318 -1146 0
-319 -1147 0
-320 -1148 0
-321 -1149 0
-322 -1150 0
-323 -1151 0
-324 -1152 0
-316 -1198 0
-317 -1199 0
-318 -1200 0
-319 -1201 0
-320 -1202 0
-321 -1203 0
-322 -1204 0
-323 -1205 0
-324 -1206 0
-316 -1315 0
-317 -1316 0
-318 -1317 0
-319 -1318 0
-320 -1319 0
-321 -1320 0
-322 -1321 0
-323 -1322 0
-324 -1323 0
-316 -1342 0
-317 -1343 0
-318 -1344 0
-319 -1345 0
-320 -1346 0
-321 -1347 0
-322 -1348 0
-323 -1349 0
-324 -1350 0
-316 -1369 0
-317 -1370 0
-318 -1371 0
-319 -1372 0
-320 -1373 0
-321 -1374 0
-322 -1375 0
-323 -1376 0
-324 -1377 0
-316 -1414 0
-317 -1415 0
-318 -1416 0
-319 -1417 0
-320 -1418 0
-321 -1419 0
-322 -1420 0
-323 -1421 0
-324 -1422 0
-316 -1432 0
-317 -1433 0
-318 -1434 0
-319 -1435 0
-320 -1436 0
-321 -1437 0
-322 -1438 0
-323 -1439 0
-324 -1440 0
-316 -1441 0
-317 -1442 0
-318 -1443 0
-319 -1444 0
-320 -1445 0
-321 -1446 0
-322 -1447 0
-323 -1448 0
-324 -1449 0
-316 -1567 0
-317 -1568 0
-318 -1569 0
-319 -1570 0
-320 -1571 0
-321 -1572 0
-322 -1573 0
-323 -1574 0
-324 -1575 0
-316 -1648 0
-317 -1649 0
-318 -1650 0
-319 -1651 0
-320 -1652 0
-321 -1653 0
-322 -1654 0
-323 -1655 0
-324 -1656 0
-316 -1675 0
-317 -1676 0
-318 -1677 0
-319 -1678 0
-320 -1679 0
-321 -1680 0
-322 -1681 0
-323 -1682 0
-324 -1683 0
-316 -1729 0
-317 -1730 0
-318 -1731 0
-319 -1732 0
-320 -1733 0
-321 -1734 0
-322 -1735 0
-323 -1736 0
-324 -1737 0
-316 -1819 0
-317 -1820 0
-318 -1821 0
-319 -1822 0
-320 -1823 0
-321 -1824 0
-322 -1825 0
-323 -1826 0
-324 -1827 0
-316 -2179 0
-317 -2180 0
-318 -2181 0
-319 -2182 0
-320 -2183 0
-321 -2184 0
-322 -2185 0
-323 -2186 0
-324 -2187 0
-316 -2188 0
-317 -2189 0
-318 -2190 0
-319 -2191 0
-320 -2192 0
-321 -2193 0
-322 -2194 0
-323 -2195 0
-324 -2196 0
-316 -2197 0
-317 -2198 0
-318 -2199 0
-319 -2200 0
-320 -2201 0
-321 -2202 0
-322 -2203 0
-323 -2204 0
-324 -2205 0
-316 -2251 0
-317 -2252 0
-318 -2253 0
-319 -2254 0
-320 -2255 0
-321 -2256 0
-322 -2257 0
-323 -2258 0
-324 -2259 0
-316 -2323 0
-317 -2324 0
-318 -2325 0
-319 -2326 0
-320 -2327 0
-321 -2328 0
-322 -2329 0
-323 -2330 0
-324 -2331 0
-316 -2350 0
-317 -2351 0
-318 -2352 0
-319 -2353 0
-320 -2354 0
-321 -2355 0
-322 -2356 0
-323 -2357 0
-324 -2358 0
-316 -2368 0
-317 -2369 0
-318 -2370 0
-319 -2371 0
-320 -2372 0
-321 -2373 0
-322 -2374 0
-323 -2375 0
-324 -2376 0
-316 -2539 0
-317 -2540 0
-318 -2541 0
-319 -2542 0
-320 -2543 0
-321 -2544 0
-322 -2545 0
-323 -2546 0
-324 -2547 0
-316 -2575 0
-317 -2576 0
-318 -2577 0
-319 -2578 0
-320 -2579 0
-321 -2580 0
-322 -2581 0
-323 -2582 0
-324 -2583 0
-316 -2674 0
-317 -2675 0
-318 -2676 0
-319 -2677 0
-320 -2678 0
-321 -2679 0
-322 -2680 0
-323 -2681 0
-324 -2682 0
-316 -2692 0
-317 -2693 0
-318 -2694 0
-319 -2695 0
-320 -2696 0
-321 -2697 0
-322 -2698 0
-323 -2699 0
-324 -2700 0
-316 -2782 0
-317 -2783 0
-318 -2784 0
-319 -2785 0
-320 -2786 0
-321 -2787 0
-322 -2788 0
-323 -2789 0
-324 -2790 0
-325 -352 0
-326 -353 0
-327 -354 0
-328 -355 0
-329 -356 0
-330 -357 0
-331 -358 0
-332 -359 0
-333 -360 0
-325 -370 0
-326 -371 0
-327 -372 0
-328 -373 0
-329 -374 0
-330 -375 0
-331 -376 0
-332 -377 0
-333 -378 0
-325 -388 0
-326 -389 0
-327 -390 0
-328 -391 0
-329 -392 0
-330 -393 0
-331 -394 0
-332 -395 0
-333 -396 0
-325 -433 0
-326 -434 0
-327 -435 0
-328 -436 0
-329 -437 0
-330 -438 0
-331 -439 0
-332 -440 0
-333 -441 0
-325 -460 0
-326 -461 0
-327 -462 0
-328 -463 0
-329 -464 0
-330 -465 0
-331 -466 0
-332 -467 0
-333 -468 0
-325 -478 0
-326 -479 0
-327 -480 0
-328 -481 0
-329 -482 0
-330 -483 0
-331 -484 0
-332 -485 0
-333 -486 0
-325 -496 0
-326 -497 0
-327 -498 0
-328 -499 0
-329 -500 0
-330 -501 0
-331 -502 0
-332 -503 0
-333 -504 0
-325 -577 0
-326 -578 0
-327 -579 0
-328 -580 0
-329 -581 0
-330 -582 0
-331 -583 0
-332 -584 0
-333 -585 0
-325 -622 0
-326 -623 0
-327 -624 0
-328 -625 0
-329 -626 0
-330 -627 0
-331 -628 0
-332 -629 0
-333 -630 0
-325 -640 0
-326 -641 0
-327 -642 0
-328 -643 0
-329 -644 0
-330 -645 0
-331 -646 0
-332 -647 0
-333 -648 0
-325 -721 0
-326 -722 0
-327 -723 0
-328 -724 0
-329 -725 0
-330 -726 0
-331 -727 0
-332 -728 0
-333 -729 0
-325 -793 0
-326 -794 0
-327 -795 0
-328 -796 0
-329 -797 0
-330 -798 0
-331 -799 0
-332 -800 0
-333 -801 0
-325 -910 0
-326 -911 0
-327 -912 0
-328 -913 0
-329 -914 0
-330 -915 0
-331 -916 0
-332 -917 0
-333 -918 0
-325 -946 0
-326 -947 0
-327 -948 0
-328 -949 0
-329 -950 0
-330 -951 0
-331 -952 0
-332 -953 0
-333 -954 0
-325 -964 0
-326 -965 0
-327 -966 0
-328 -967 0
-329 -968 0
-330 -969 0
-331 -970 0
-332 -971 0
-333 -972 0
-325 -982 0
-326 -983 0
-327 -984 0
-328 -985 0
-329 -986 0
-330 -987 0
-331 -988 0
-332 -989 0
-333 -990 0
-325 -1063 0
-326 -1064 0
-327 -1065 0
-328 -1066 0
-329 -1067 0
-330 -1068 0
-331 -1069 0
-332 -1070 0
-333 -1071 0
-325 -1153 0
-326 -1154 0
-327 -1155 0
-328 -1156 0
-329 -1157 0
-330 -1158 0
-331 -1159 0
-332 -1160 0
-333 -1161 0
-325 -1207 0
-326 -1208 0
-327 -1209 0
-328 -1210 0
-329 -1211 0
-330 -1212 0
-331 -1213 0
-332 -1214 0
-333 -1215 0
-325 -1225 0
-326 -1226 0
-327 -1227 0
-328 -1228 0
-329 -1229 0
-330 -1230 0
-331 -1231 0
-332 -1232 0
-333 -1233 0
-325 -1234 0
-326 -1235 0
-327 -1236 0
-328 -1237 0
-329 -1238 0
-330 -1239 0
-331 -1240 0
-332 -1241 0
-333 -1242 0
-325 -1288 0
-326 -1289 0
-327 -1290 0
-328 -1291 0
-329 -1292 0
-330 -1293 0
-331 -1294 0
-332 -1295 0
-333 -1296 0
-325 -1324 0
-326 -1325 0
-327 -1326 0
-328 -1327 0
-329 -1328 0
-330 -1329 0
-331 -1330 0
-332 -1331 0
-333 -1332 0
-325 -1351 0
-326 -1352 0
-327 -1353 0
-328 -1354 0
-329 -1355 0
-330 -1356 0
-331 -1357 0
-332 -1358 0
-333 -1359 0
-325 -1369 0
-326 -1370 0
-327 -1371 0
-328 -1372 0
-329 -1373 0
-330 -1374 0
-331 -1375 0
-332 -1376 0
-333 -1377 0
-325 -1378 0
-326 -1379 0
-327 -1380 0
-328 -1381 0
-329 -1382 0
-330 -1383 0
-331 -1384 0
-332 -1385 0
-333 -1386 0
-325 -1387 0
-326 -1388 0
-327 -1389 0
-328 -1390 0
-329 -1391 0
-330 -1392 0
-331 -1393 0
-332 -1394 0
-333 -1395 0
-325 -1396 0
-326 -1397 0
-327 -1398 0
-328 -1399 0
-329 -1400 0
-330 -1401 0
-331 -1402 0
-332 -1403 0
-333 -1404 0
-325 -1432 0
-326 -1433 0
-327 -1434 0
-328 -1435 0
-329 -1436 0
-330 -1437 0
-331 -1438 0
-332 -1439 0
-333 -1440 0
-325 -1450 0
-326 -1451 0
-327 -1452 0
-328 -1453 0
-329 -1454 0
-330 -1455 0
-331 -1456 0
-332 -1457 0
-333 -1458 0
-325 -1486 0
-326 -1487 0
-327 -1488 0
-328 -1489 0
-329 -1490 0
-330 -1491 0
-331 -1492 0
-332 -1493 0
-333 -1494 0
-325 -1576 0
-326 -1577 0
-327 -1578 0
-328 -1579 0
-329 -1580 0
-330 -1581 0
-331 -1582 0
-332 -1583 0
-333 -1584 0
-325 -1657 0
-326 -1658 0
-327 -1659 0
-328 -1660 0
-329 -1661 0
-330 -1662 0
-331 -1663 0
-332 -1664 0
-333 -1665 0
-325 -1711 0
-326 -1712 0
-327 -1713 0
-328 -1714 0
-329 -1715 0
-330 -1716 0
-331 -1717 0
-332 -1718 0
-333 -1719 0
-325 -1747 0
-326 -1748 0
-327 -1749 0
-328 -1750 0
-329 -1751 0
-330 -1752 0
-331 -1753 0
-332 -1754 0
-333 -1755 0
-325 -1765 0
-326 -1766 0
-327 -1767 0
-328 -1768 0
-329 -1769 0
-330 -1770 0
-331 -1771 0
-332 -1772 0
-333 -1773 0
-325 -1792 0
-326 -1793 0
-327 -1794 0
-328 -1795 0
-329 -1796 0
-330 -1797 0
-331 -1798 0
-332 -1799 0
-333 -1800 0
-325 -1819 0
-326 -1820 0
-327 -1821 0
-328 -1822 0
-329 -1823 0
-330 -1824 0
-331 -1825 0
-332 -1826 0
-333 -1827 0
-325 -1864 0
-326 -1865 0
-327 -1866 0
-328 -1867 0
-329 -1868 0
-330 -1869 0
-331 -1870 0
-332 -1871 0
-333 -1872 0
-325 -1882 0
-326 -1883 0
-327 -1884 0
-328 -1885 0
-329 -1886 0
-330 -1887 0
-331 -1888 0
-332 -1889 0
-333 -1890 0
-325 -1936 0
-326 -1937 0
-327 -1938 0
-328 -1939 0
-329 -1940 0
-330 -1941 0
-331 -1942 0
-332 -1943 0
-333 -1944 0
-325 -2107 0
-326 -2108 0
-327 -2109 0
-328 -2110 0
-329 -2111 0
-330 -2112 0
-331 -2113 0
-332 -2114 0
-333 -2115 0
-325 -2161 0
-326 -2162 0
-327 -2163 0
-328 -2164 0
-329 -2165 0
-330 -2166 0
-331 -2167 0
-332 -2168 0
-333 -2169 0
-325 -2197 0
-326 -2198 0
-327 -2199 0
-328 -2200 0
-329 -2201 0
-330 -2202 0
-331 -2203 0
-332 -2204 0
-333 -2205 0
-325 -2206 0
-326 -2207 0
-327 -2208 0
-328 -2209 0
-329 -2210 0
-330 -2211 0
-331 -2212 0
-332 -2213 0
-333 -2214 0
-325 -2233 0
-326 -2234 0
-327 -2235 0
-328 -2236 0
-329 -2237 0
-330 -2238 0
-331 -2239 0
-332 -2240 0
-333 -2241 0
-325 -2260 0
-326 -2261 0
-327 -2262 0
-328 -2263 0
-329 -2264 0
-330 -2265 0
-331 -2266 0
-332 -2267 0
-333 -2268 0
-325 -2314 0
-326 -2315 0
-327 -2316 0
-328 -2317 0
-329 -2318 0
-330 -2319 0
-331 -2320 0
-332 -2321 0
-333 -2322 0
-325 -2368 0
-326 -2369 0
-327 -2370 0
-328 -2371 0
-329 -2372 0
-330 -2373 0
-331 -2374 0
-332 -2375 0
-333 -2376 0
-325 -2404 0
-326 -2405 0
-327 -2406 0
-328 -2407 0
-329 -2408 0
-330 -2409 0
-331 -2410 0
-332 -2411 0
-333 -2412 0
-325 -2431 0
-326 -2432 0
-327 -2433 0
-328 -2434 0
-329 -2435 0
-330 -2436 0
-331 -2437 0
-332 -2438 0
-333 -2439 0
-325 -2476 0
-326 -2477 0
-327 -2478 0
-328 -2479 0
-329 -2480 0
-330 -2481 0
-331 -2482 0
-332 -2483 0
-333 -2484 0
-325 -2494 0
-326 -2495 0
-327 -2496 0
-328 -2497 0
-329 -2498 0
-330 -2499 0
-331 -2500 0
-332 -2501 0
-333 -2502 0
-325 -2512 0
-326 -2513 0
-327 -2514 0
-328 -2515 0
-329 -2516 0
-330 -2517 0
-331 -2518 0
-332 -2519 0
-333 -2520 0
-325 -2530 0
-326 -2531 0
-327 -2532 0
-328 -2533 0
-329 -2534 0
-330 -2535 0
-331 -2536 0
-332 -2537 0
-333 -2538 0
-325 -2548 0
-326 -2549 0
-327 -2550 0
-328 -2551 0
-329 -2552 0
-330 -2553 0
-331 -2554 0
-332 -2555 0
-333 -2556 0
-325 -2575 0
-326 -2576 0
-327 -2577 0
-328 -2578 0
-329 -2579 0
-330 -2580 0
-331 -2581 0
-332 -2582 0
-333 -2583 0
-325 -2620 0
-326 -2621 0
-327 -2622 0
-328 -2623 0
-329 -2624 0
-330 -2625 0
-331 -2626 0
-332 -2627 0
-333 -2628 0
-325 -2629 0
-326 -2630 0
-327 -2631 0
-328 -2632 0
-329 -2633 0
-330 -2634 0
-331 -2635 0
-332 -2636 0
-333 -2637 0
-325 -2764 0
-326 -2765 0
-327 -2766 0
-328 -2767 0
-329 -2768 0
-330 -2769 0
-331 -2770 0
-332 -2771 0
-333 -2772 0
-325 -2773 0
-326 -2774 0
-327 -2775 0
-328 -2776 0
-329 -2777 0
-330 -2778 0
-331 -2779 0
-332 -2780 0
-333 -2781 0
-325 -2782 0
-326 -2783 0
-327 -2784 0
-328 -2785 0
-329 -2786 0
-330 -2787 0
-331 -2788 0
-332 -2789 0
-333 -2790 0
-325 -2818 0
-326 -2819 0
-327 -2820 0
-328 -2821 0
-329 -2822 0
-330 -2823 0
-331 -2824 0
-332 -2825 0
-333 -2826 0
-325 -2845 0
-326 -2846 0
-327 -2847 0
-328 -2848 0
-329 -2849 0
-330 -2850 0
-331 -2851 0
-332 -2852 0
-333 -2853 0
-325 -2872 0
-326 -2873 0
-327 -2874 0
-328 -2875 0
-329 -2876 0
-330 -2877 0
-331 -2878 0
-332 -2879 0
-333 -2880 0
-334 -397 0
-335 -398 0
-336 -399 0
-337 -400 0
-338 -401 0
-339 -402 0
-340 -403 0
-341 -404 0
-342 -405 0
-334 -442 0
-335 -443 0
-336 -444 0
-337 -445 0
-338 -446 0
-339 -447 0
-340 -448 0
-341 -449 0
-342 -450 0
-334 -460 0
-335 -461 0
-336 -462 0
-337 -463 0
-338 -464 0
-339 -465 0
-340 -466 0
-341 -467 0
-342 -468 0
-334 -487 0
-335 -488 0
-336 -489 0
-337 -490 0
-338 -491 0
-339 -492 0
-340 -493 0
-341 -494 0
-342 -495 0
-334 -514 0
-335 -515 0
-336 -516 0
-337 -517 0
-338 -518 0
-339 -519 0
-340 -520 0
-341 -521 0
-342 -522 0
-334 -712 0
-335 -713 0
-336 -714 0
-337 -715 0
-338 -716 0
-339 -717 0
-340 -718 0
-341 -719 0
-342 -720 0
-334 -721 0
-335 -722 0
-336 -723 0
-337 -724 0
-338 -725 0
-339 -726 0
-340 -727 0
-341 -728 0
-342 -729 0
-334 -766 0
-335 -767 0
-336 -768 0
-337 -769 0
-338 -770 0
-339 -771 0
-340 -772 0
-341 -773 0
-342 -774 0
-334 -829 0
-335 -830 0
-336 -831 0
-337 -832 0
-338 -833 0
-339 -834 0
-340 -835 0
-341 -836 0
-342 -837 0
-334 -838 0
-335 -839 0
-336 -840 0
-337 -841 0
-338 -842 0
-339 -843 0
-340 -844 0
-341 -845 0
-342 -846 0
-334 -856 0
-335 -857 0
-336 -858 0
-337 -859 0
-338 -860 0
-339 -861 0
-340 -862 0
-341 -863 0
-342 -864 0
-334 -892 0
-335 -893 0
-336 -894 0
-337 -895 0
-338 -896 0
-339 -897 0
-340 -898 0
-341 -899 0
-342 -900 0
-334 -964 0
-335 -965 0
-336 -966 0
-337 -967 0
-338 -968 0
-339 -969 0
-340 -970 0
-341 -971 0
-342 -972 0
-334 -1000 0
-335 -1001 0
-336 -1002 0
-337 -1003 0
-338 -1004 0
-339 -1005 0
-340 -1006 0
-341 -1007 0
-342 -1008 0
-334 -1018 0
-335 -1019 0
-336 -1020 0
-337 -1021 0
-338 -1022 0
-339 -1023 0
-340 -1024 0
-341 -1025 0
-342 -1026 0
-334 -1054 0
-335 -1055 0
-336 -1056 0
-337 -1057 0
-338 -1058 0
-339 -1059 0
-340 -1060 0
-341 -1061 0
-342 -1062 0
-334 -1144 0
-335 -1145 0
-336 -1146 0
-337 -1147 0
-338 -1148 0
-339 -1149 0
-340 -1150 0
-341 -1151 0
-342 -1152 0
-334 -1189 0
-335 -1190 0
-336 -1191 0
-337 -1192 0
-338 -1193 0
-339 -1194 0
-340 -1195 0
-341 -1196 0
-342 -1197 0
-334 -1243 0
-335 -1244 0
-336 -1245 0
-337 -1246 0
-338 -1247 0
-339 -1248 0
-340 -1249 0
-341 -1250 0
-342 -1251 0
-334 -1261 0
-335 -1262 0
-336 -1263 0
-337 -1264 0
-338 -1265 0
-339 -1266 0
-340 -1267 0
-341 -1268 0
-342 -1269 0
-334 -1279 0
-335 -1280 0
-336 -1281 0
-337 -1282 0
-338 -1283 0
-339 -1284 0
-340 -1285 0
-341 -1286 0
-342 -1287 0
-334 -1414 0
-335 -1415 0
-336 -1416 0
-337 -1417 0
-338 -1418 0
-339 -1419 0
-340 -1420 0
-341 -1421 0
-342 -1422 0
-334 -1495 0
-335 -1496 0
-336 -1497 0
-337 -1498 0
-338 -1499 0
-339 -1500 0
-340 -1501 0
-341 -1502 0
-342 -1503 0
-334 -1522 0
-335 -1523 0
-336 -1524 0
-337 -1525 0
-338 -1526 0
-339 -1527 0
-340 -1528 0
-341 -1529 0
-342 -1530 0
-334 -1540 0
-335 -1541 0
-336 -1542 0
-337 -1543 0
-338 -1544 0
-339 -1545 0
-340 -1546 0
-341 -1547 0
-342 -1548 0
-334 -1576 0
-335 -1577 0
-336 -1578 0
-337 -1579 0
-338 -1580 0
-339 -1581 0
-340 -1582 0
-341 -1583 0
-342 -1584 0
-334 -1999 0
-335 -2000 0
-336 -2001 0
-337 -2002 0
-338 -2003 0
-339 -2004 0
-340 -2005 0
-341 -2006 0
-342 -2007 0
-334 -2008 0
-335 -2009 0
-336 -2010 0
-337 -2011 0
-338 -2012 0
-339 -2013 0
-340 -2014 0
-341 -2015 0
-342 -2016 0
-334 -2017 0
-335 -2018 0
-336 -2019 0
-337 -2020 0
-338 -2021 0
-339 -2022 0
-340 -2023 0
-341 -2024 0
-342 -2025 0
-334 -2098 0
-335 -2099 0
-336 -2100 0
-337 -2101 0
-338 -2102 0
-339 -2103 0
-340 -2104 0
-341 -2105 0
-342 -2106 0
-334 -2134 0
-335 -2135 0
-336 -2136 0
-337 -2137 0
-338 -2138 0
-339 -2139 0
-340 -2140 0
-341 -2141 0
-342 -2142 0
-334 -2152 0
-335 -2153 0
-336 -2154 0
-337 -2155 0
-338 -2156 0
-339 -2157 0
-340 -2158 0
-341 -2159 0
-342 -2160 0
-334 -2242 0
-335 -2243 0
-336 -2244 0
-337 -2245 0
-338 -2246 0
-339 -2247 0
-340 -2248 0
-341 -2249 0
-342 -2250 0
-334 -2341 0
-335 -2342 0
-336 -2343 0
-337 -2344 0
-338 -2345 0
-339 -2346 0
-340 -2347 0
-341 -2348 0
-342 -2349 0
-334 -2377 0
-335 -2378 0
-336 -2379 0
-337 -2380 0
-338 -2381 0
-339 -2382 0
-340 -2383 0
-341 -2384 0
-342 -2385 0
-334 -2395 0
-335 -2396 0
-336 -2397 0
-337 -2398 0
-338 -2399 0
-339 -2400 0
-340 -2401 0
-341 -2402 0
-342 -2403 0
-334 -2440 0
-335 -2441 0
-336 -2442 0
-337 -2443 0
-338 -2444 0
-339 -2445 0
-340 -2446 0
-341 -2447 0
-342 -2448 0
-334 -2611 0
-335 -2612 0
-336 -2613 0
-337 -2614 0
-338 -2615 0
-339 -2616 0
-340 -2617 0
-341 -2618 0
-342 -2619 0
-334 -2629 0
-335 -2630 0
-336 -2631 0
-337 -2632 0
-338 -2633 0
-339 -2634 0
-340 -2635 0
-341 -2636 0
-342 -2637 0
-334 -2674 0
-335 -2675 0
-336 -2676 0
-337 -2677 0
-338 -2678 0
-339 -2679 0
-340 -2680 0
-341 -2681 0
-342 -2682 0
-334 -2728 0
-335 -2729 0
-336 -2730 0
-337 -2731 0
-338 -2732 0
-339 -2733 0
-340 -2734 0
-341 -2735 0
-342 -2736 0
-334 -2836 0
-335 -2837 0
-336 -2838 0
-337 -2839 0
-338 -2840 0
-339 -2841 0
-340 -2842 0
-341 -2843 0
-342 -2844 0
-343 -397 0
-344 -398 0
-345 -399 0
-346 -400 0
-347 -401 0
-348 -402 0
-349 -403 0
-350 -404 0
-351 -405 0
-343 -442 0
-344 -443 0
-345 -444 0
-346 -445 0
-347 -446 0
-348 -447 0
-349 -448 0
-350 -449 0
-351 -450 0
-343 -460 0
-344 -461 0
-345 -462 0
-346 -463 0
-347 -464 0
-348 -465 0
-349 -466 0
-350 -467 0
-351 -468 0
-343 -496 0
-344 -497 0
-345 -498 0
-346 -499 0
-347 -500 0
-348 -501 0
-349 -502 0
-350 -503 0
-351 -504 0
-343 -505 0
-344 -506 0
-345 -507 0
-346 -508 0
-347 -509 0
-348 -510 0
-349 -511 0
-350 -512 0
-351 -513 0
-343 -703 0
-344 -704 0
-345 -705 0
-346 -706 0
-347 -707 0
-348 -708 0
-349 -709 0
-350 -710 0
-351 -711 0
-343 -721 0
-344 -722 0
-345 -723 0
-346 -724 0
-347 -725 0
-348 -726 0
-349 -727 0
-350 -728 0
-351 -729 0
-343 -766 0
-344 -767 0
-345 -768 0
-346 -769 0
-347 -770 0
-348 -771 0
-349 -772 0
-350 -773 0
-351 -774 0
-343 -820 0
-344 -821 0
-345 -822 0
-346 -823 0
-347 -824 0
-348 -825 0
-349 -826 0
-350 -827 0
-351 -828 0
-343 -847 0
-344 -848 0
-345 -849 0
-346 -850 0
-347 -851 0
-348 -852 0
-349 -853 0
-350 -854 0
-351 -855 0
-343 -865 0
-344 -866 0
-345 -867 0
-346 -868 0
-347 -869 0
-348 -870 0
-349 -871 0
-350 -872 0
-351 -873 0
-343 -901 0
-344 -902 0
-345 -903 0
-346 -904 0
-347 -905 0
-348 -906 0
-349 -907 0
-350 -908 0
-351 -909 0
-343 -964 0
-344 -965 0
-345 -966 0
-346 -967 0
-347 -968 0
-348 -969 0
-349 -970 0
-350 -971 0
-351 -972 0
-343 -1009 0
-344 -1010 0
-345 -1011 0
-346 -1012 0
-347 -1013 0
-348 -1014 0
-349 -1015 0
-350 -1016 0
-351 -1017 0
-343 -1036 0
-344 -1037 0
-345 -1038 0
-346 -1039 0
-347 -1040 0
-348 -1041 0
-349 -1042 0
-350 -1043 0
-351 -1044 0
-343 -1054 0
-344 -1055 0
-345 -1056 0
-346 -1057 0
-347 -1058 0
-348 -1059 0
-349 -1060 0
-350 -1061 0
-351 -1062 0
-343 -1063 0
-344 -1064 0
-345 -1065 0
-346 -1066 0
-347 -1067 0
-348 -1068 0
-349 -1069 0
-350 -1070 0
-351 -1071 0
-343 -1144 0
-344 -1145 0
-345 -1146 0
-346 -1147 0
-347 -1148 0
-348 -1149 0
-349 -1150 0
-350 -1151 0
-351 -1152 0
-343 -1207 0
-344 -1208 0
-345 -1209 0
-346 -1210 0
-347 -1211 0
-348 -1212 0
-349 -1213 0
-350 -1214 0
-351 -1215 0
-343 -1252 0
-344 -1253 0
-345 -1254 0
-346 -1255 0
-347 -1256 0
-348 -1257 0
-349 -1258 0
-350 -1259 0
-351 -1260 0
-343 -1396 0
-344 -1397 0
-345 -1398 0
-346 -1399 0
-347 -1400 0
-348 -1401 0
-349 -1402 0
-350 -1403 0
-351 -1404 0
-343 -1432 0
-344 -1433 0
-345 -1434 0
-346 -1435 0
-347 -1436 0
-348 -1437 0
-349 -1438 0
-350 -1439 0
-351 -1440 0
-343 -1486 0
-344 -1487 0
-345 -1488 0
-346 -1489 0
-347 -1490 0
-348 -1491 0
-349 -1492 0
-350 -1493 0
-351 -1494 0
-343 -1531 0
-344 -1532 0
-345 -1533 0
-346 -1534 0
-347 -1535 0
-348 -1536 0
-349 -1537 0
-350 -1538 0
-351 -1539 0
-343 -1549 0
-344 -1550 0
-345 -1551 0
-346 -1552 0
-347 -1553 0
-348 -1554 0
-349 -1555 0
-350 -1556 0
-351 -1557 0
-343 -1585 0
-344 -1586 0
-345 -1587 0
-346 -1588 0
-347 -1589 0
-348 -1590 0
-349 -1591 0
-350 -1592 0
-351 -1593 0
-343 -1882 0
-344 -1883 0
-345 -1884 0
-346 -1885 0
-347 -1886 0
-348 -1887 0
-349 -1888 0
-350 -1889 0
-351 -1890 0
-343 -1918 0
-344 -1919 0
-345 -1920 0
-346 -1921 0
-347 -1922 0
-348 -1923 0
-349 -1924 0
-350 -1925 0
-351 -1926 0
-343 -1945 0
-344 -1946 0
-345 -1947 0
-346 -1948 0
-347 -1949 0
-348 -1950 0
-349 -1951 0
-350 -1952 0
-351 -1953 0
-343 -2035 0
-344 -2036 0
-345 -2037 0
-346 -2038 0
-347 -2039 0
-348 -2040 0
-349 -2041 0
-350 -2042 0
-351 -2043 0
-343 -2206 0
-344 -2207 0
-345 -2208 0
-346 -2209 0
-347 -2210 0
-348 -2211 0
-349 -2212 0
-350 -2213 0
-351 -2214 0
-343 -2215 0
-344 -2216 0
-345 -2217 0
-346 -2218 0
-347 -2219 0
-348 -2220 0
-349 -2221 0
-350 -2222 0
-351 -2223 0
-343 -2224 0
-344 -2225 0
-345 -2226 0
-346 -2227 0
-347 -2228 0
-348 -2229 0
-349 -2230 0
-350 -2231 0
-351 -2232 0
-343 -2269 0
-344 -2270 0
-345 -2271 0
-346 -2272 0
-347 -2273 0
-348 -2274 0
-349 -2275 0
-350 -2276 0
-351 -2277 0
-343 -2314 0
-344 -2315 0
-345 -2316 0
-346 -2317 0
-347 -2318 0
-348 -2319 0
-349 -2320 0
-350 -2321 0
-351 -2322 0
-343 -2404 0
-344 -2405 0
-345 -2406 0
-346 -2407 0
-347 -2408 0
-348 -2409 0
-349 -2410 0
-350 -2411 0
-351 -2412 0
-343 -2440 0
-344 -2441 0
-345 -2442 0
-346 -2443 0
-347 -2444 0
-348 -2445 0
-349 -2446 0
-350 -2447 0
-351 -2448 0
-343 -2557 0
-344 -2558 0
-345 -2559 0
-346 -2560 0
-347 -2561 0
-348 -2562 0
-349 -2563 0
-350 -2564 0
-351 -2565 0
-343 -2584 0
-344 -2585 0
-345 -2586 0
-346 -2587 0
-347 -2588 0
-348 -2589 0
-349 -2590 0
-350 -2591 0
-351 -2592 0
-343 -2674 0
-344 -2675 0
-345 -2676 0
-346 -2677 0
-347 -2678 0
-348 -2679 0
-349 -2680 0
-350 -2681 0
-351 -2682 0
-343 -2710 0
-344 -2711 0
-345 -2712 0
-346 -2713 0
-347 -2714 0
-348 -2715 0
-349 -2716 0
-350 -2717 0
-351 -2718 0
-343 -2863 0
-344 -2864 0
-345 -2865 0
-346 -2866 0
-347 -2867 0
-348 -2868 0
-349 -2869 0
-350 -2870 0
-351 -2871 0
-352 -379 0
-353 -380 0
-354 -381 0
-355 -382 0
-356 -383 0
-357 -384 0
-358 -385 0
-359 -386 0
-360 -387 0
-352 -388 0
-353 -389 0
-354 -390 0
-355 -391 0
-356 -392 0
-357 -393 0
-358 -394 0
-359 -395 0
-360 -396 0
-352 -451 0
-353 -452 0
-354 -453 0
-355 -454 0
-356 -455 0
-357 -456 0
-358 -457 0
-359 -458 0
-360 -459 0
-352 -460 0
-353 -461 0
-354 -462 0
-355 -463 0
-356 -464 0
-357 -465 0
-358 -466 0
-359 -467 0
-360 -468 0
-352 -505 0
-353 -506 0
-354 -507 0
-355 -508 0
-356 -509 0
-357 -510 0
-358 -511 0
-359 -512 0
-360 -513 0
-352 -514 0
-353 -515 0
-354 -516 0
-355 -517 0
-356 -518 0
-357 -519 0
-358 -520 0
-359 -521 0
-360 -522 0
-352 -577 0
-353 -578 0
-354 -579 0
-355 -580 0
-356 -581 0
-357 -582 0
-358 -583 0
-359 -584 0
-360 -585 0
-352 -649 0
-353 -650 0
-354 -651 0
-355 -652 0
-356 -653 0
-357 -654 0
-358 -655 0
-359 -656 0
-360 -657 0
-352 -658 0
-353 -659 0
-354 -660 0
-355 -661 0
-356 -662 0
-357 -663 0
-358 -664 0
-359 -665 0
-360 -666 0
-352 -721 0
-353 -722 0
-354 -723 0
-355 -724 0
-356 -725 0
-357 -726 0
-358 -727 0
-359 -728 0
-360 -729 0
-352 -793 0
-353 -794 0
-354 -795 0
-355 -796 0
-356 -797 0
-357 -798 0
-358 -799 0
-359 -800 0
-360 -801 0
-352 -910 0
-353 -911 0
-354 -912 0
-355 -913 0
-356 -914 0
-357 -915 0
-358 -916 0
-359 -917 0
-360 -918 0
-352 -919 0
-353 -920 0
-354 -921 0
-355 -922 0
-356 -923 0
-357 -924 0
-358 -925 0
-359 -926 0
-360 -927 0
-352 -928 0
-353 -929 0
-354 -930 0
-355 -931 0
-356 -932 0
-357 -933 0
-358 -934 0
-359 -935 0
-360 -936 0
-352 -937 0
-353 -938 0
-354 -939 0
-355 -940 0
-356 -941 0
-357 -942 0
-358 -943 0
-359 -944 0
-360 -945 0
-352 -1063 0
-353 -1064 0
-354 -1065 0
-355 -1066 0
-356 -1067 0
-357 -1068 0
-358 -1069 0
-359 -1070 0
-360 -1071 0
-352 -1126 0
-353 -1127 0
-354 -1128 0
-355 -1129 0
-356 -1130 0
-357 -1131 0
-358 -1132 0
-359 -1133 0
-360 -1134 0
-352 -1198 0
-353 -1199 0
-354 -1200 0
-355 -1201 0
-356 -1202 0
-357 -1203 0
-358 -1204 0
-359 -1205 0
-360 -1206 0
-352 -1216 0
-353 -1217 0
-354 -1218 0
-355 -1219 0
-356 -1220 0
-357 -1221 0
-358 -1222 0
-359 -1223 0
-360 -1224 0
-352 -1243 0
-353 -1244 0
-354 -1245 0
-355 -1246 0
-356 -1247 0
-357 -1248 0
-358 -1249 0
-359 -1250 0
-360 -1251 0
-352 -1279 0
-353 -1280 0
-354 -1281 0
-355 -1282 0
-356 -1283 0
-357 -1284 0
-358 -1285 0
-359 -1286 0
-360 -1287 0
-352 -1342 0
-353 -1343 0
-354 -1344 0
-355 -1345 0
-356 -1346 0
-357 -1347 0
-358 -1348 0
-359 -1349 0
-360 -1350 0
-352 -1405 0
-353 -1406 0
-354 -1407 0
-355 -1408 0
-356 -1409 0
-357 -1410 0
-358 -1411 0
-359 -1412 0
-360 -1413 0
-352 -1432 0
-353 -1433 0
-354 -1434 0
-355 -1435 0
-356 -1436 0
-357 -1437 0
-358 -1438 0
-359 -1439 0
-360 -1440 0
-352 -1459 0
-353 -1460 0
-354 -1461 0
-355 -1462 0
-356 -1463 0
-357 -1464 0
-358 -1465 0
-359 -1466 0
-360 -1467 0
-352 -1504 0
-353 -1505 0
-354 -1506 0
-355 -1507 0
-356 -1508 0
-357 -1509 0
-358 -1510 0
-359 -1511 0
-360 -1512 0
-352 -1513 0
-353 -1514 0
-354 -1515 0
-355 -1516 0
-356 -1517 0
-357 -1518 0
-358 -1519 0
-359 -1520 0
-360 -1521 0
-352 -1540 0
-353 -1541 0
-354 -1542 0
-355 -1543 0
-356 -1544 0
-357 -1545 0
-358 -1546 0
-359 -1547 0
-360 -1548 0
-352 -1549 0
-353 -1550 0
-354 -1551 0
-355 -1552 0
-356 -1553 0
-357 -1554 0
-358 -1555 0
-359 -1556 0
-360 -1557 0
-352 -1558 0
-353 -1559 0
-354 -1560 0
-355 -1561 0
-356 -1562 0
-357 -1563 0
-358 -1564 0
-359 -1565 0
-360 -1566 0
-352 -1567 0
-353 -1568 0
-354 -1569 0
-355 -1570 0
-356 -1571 0
-357 -1572 0
-358 -1573 0
-359 -1574 0
-360 -1575 0
-352 -1639 0
-353 -1640 0
-354 -1641 0
-355 -1642 0
-356 -1643 0
-357 -1644 0
-358 -1645 0
-359 -1646 0
-360 -1647 0
-352 -1648 0
-353 -1649 0
-354 -1650 0
-355 -1651 0
-356 -1652 0
-357 -1653 0
-358 -1654 0
-359 -1655 0
-360 -1656 0
-352 -1711 0
-353 -1712 0
-354 -1713 0
-355 -1714 0
-356 -1715 0
-357 -1716 0
-358 -1717 0
-359 -1718 0
-360 -1719 0
-352 -1720 0
-353 -1721 0
-354 -1722 0
-355 -1723 0
-356 -1724 0
-357 -1725 0
-358 -1726 0
-359 -1727 0
-360 -1728 0
-352 -1873 0
-353 -1874 0
-354 -1875 0
-355 -1876 0
-356 -1877 0
-357 -1878 0
-358 -1879 0
-359 -1880 0
-360 -1881 0
-352 -1963 0
-353 -1964 0
-354 -1965 0
-355 -1966 0
-356 -1967 0
-357 -1968 0
-358 -1969 0
-359 -1970 0
-360 -1971 0
-352 -1981 0
-353 -1982 0
-354 -1983 0
-355 -1984 0
-356 -1985 0
-357 -1986 0
-358 -1987 0
-359 -1988 0
-360 -1989 0
-352 -2017 0
-353 -2018 0
-354 -2019 0
-355 -2020 0
-356 -2021 0
-357 -2022 0
-358 -2023 0
-359 -2024 0
-360 -2025 0
-352 -2035 0
-353 -2036 0
-354 -2037 0
-355 -2038 0
-356 -2039 0
-357 -2040 0
-358 -2041 0
-359 -2042 0
-360 -2043 0
-352 -2089 0
-353 -2090 0
-354 -2091 0
-355 -2092 0
-356 -2093 0
-357 -2094 0
-358 -2095 0
-359 -2096 0
-360 -2097 0
-352 -2170 0
-353 -2171 0
-354 -2172 0
-355 -2173 0
-356 -2174 0
-357 -2175 0
-358 -2176 0
-359 -2177 0
-360 -2178 0
-352 -2179 0
-353 -2180 0
-354 -2181 0
-355 -2182 0
-356 -2183 0
-357 -2184 0
-358 -2185 0
-359 -2186 0
-360 -2187 0
-352 -2224 0
-353 -2225 0
-354 -2226 0
-355 -2227 0
-356 -2228 0
-357 -2229 0
-358 -2230 0
-359 -2231 0
-360 -2232 0
-352 -2242 0
-353 -2243 0
-354 -2244 0
-355 -2245 0
-356 -2246 0
-357 -2247 0
-358 -2248 0
-359 -2249 0
-360 -2250 0
-352 -2287 0
-353 -2288 0
-354 -2289 0
-355 -2290 0
-356 -2291 0
-357 -2292 0
-358 -2293 0
-359 -2294 0
-360 -2295 0
-352 -2323 0
-353 -2324 0
-354 -2325 0
-355 -2326 0
-356 -2327 0
-357 -2328 0
-358 -2329 0
-359 -2330 0
-360 -2331 0
-352 -2350 0
-353 -2351 0
-354 -2352 0
-355 -2353 0
-356 -2354 0
-357 -2355 0
-358 -2356 0
-359 -2357 0
-360 -2358 0
-352 -2386 0
-353 -2387 0
-354 -2388 0
-355 -2389 0
-356 -2390 0
-357 -2391 0
-358 -2392 0
-359 -2393 0
-360 -2394 0
-352 -2440 0
-353 -2441 0
-354 -2442 0
-355 -2443 0
-356 -2444 0
-357 -2445 0
-358 -2446 0
-359 -2447 0
-360 -2448 0
-352 -2467 0
-353 -2468 0
-354 -2469 0
-355 -2470 0
-356 -2471 0
-357 -2472 0
-358 -2473 0
-359 -2474 0
-360 -2475 0
-352 -2476 0
-353 -2477 0
-354 -2478 0
-355 -2479 0
-356 -2480 0
-357 -2481 0
-358 -2482 0
-359 -2483 0
-360 -2484 0
-352 -2521 0
-353 -2522 0
-354 -2523 0
-355 -2524 0
-356 -2525 0
-357 -2526 0
-358 -2527 0
-359 -2528 0
-360 -2529 0
-352 -2530 0
-353 -2531 0
-354 -2532 0
-355 -2533 0
-356 -2534 0
-357 -2535 0
-358 -2536 0
-359 -2537 0
-360 -2538 0
-352 -2566 0
-353 -2567 0
-354 -2568 0
-355 -2569 0
-356 -2570 0
-357 -2571 0
-358 -2572 0
-359 -2573 0
-360 -2574 0
-352 -2584 0
-353 -2585 0
-354 -2586 0
-355 -2587 0
-356 -2588 0
-357 -2589 0
-358 -2590 0
-359 -2591 0
-360 -2592 0
-352 -2620 0
-353 -2621 0
-354 -2622 0
-355 -2623 0
-356 -2624 0
-357 -2625 0
-358 -2626 0
-359 -2627 0
-360 -2628 0
-352 -2629 0
-353 -2630 0
-354 -2631 0
-355 -2632 0
-356 -2633 0
-357 -2634 0
-358 -2635 0
-359 -2636 0
-360 -2637 0
-352 -2827 0
-353 -2828 0
-354 -2829 0
-355 -2830 0
-356 -2831 0
-357 -2832 0
-358 -2833 0
-359 -2834 0
-360 -2835 0
-352 -2836 0
-353 -2837 0
-354 -2838 0
-355 -2839 0
-356 -2840 0
-357 -2841 0
-358 -2842 0
-359 -2843 0
-360 -2844 0
-352 -2854 0
-353 -2855 0
-354 -2856 0
-355 -2857 0
-356 -2858 0
-357 -2859 0
-358 -2860 0
-359 -2861 0
-360 -2862 0
-352 -2863 0
-353 -2864 0
-354 -2865 0
-355 -2866 0
-356 -2867 0
-357 -2868 0
-358 -2869 0
-359 -2870 0
-360 -2871 0
-352 -2881 0
-353 -2882 0
-354 -2883 0
-355 -2884 0
-356 -2885 0
-357 -2886 0
-358 -2887 0
-359 -2888 0
-360 -2889 0
-352 -2890 0
-353 -2891 0
-354 -2892 0
-355 -2893 0
-356 -2894 0
-357 -2895 0
-358 -2896 0
-359 -2897 0
-360 -2898 0
-361 -370 0
-362 -371 0
-363 -372 0
-364 -373 0
-365 -374 0
-366 -375 0
-367 -376 0
-368 -377 0
-369 -378 0
-361 -379 0
-362 -380 0
-363 -381 0
-364 -382 0
-365 -383 0
-366 -384 0
-367 -385 0
-368 -386 0
-369 -387 0
-361 -388 0
-362 -389 0
-363 -390 0
-364 -391 0
-365 -392 0
-366 -393 0
-367 -394 0
-368 -395 0
-369 -396 0
-361 -406 0
-362 -407 0
-363 -408 0
-364 -409 0
-365 -410 0
-366 -411 0
-367 -412 0
-368 -413 0
-369 -414 0
-361 -415 0
-362 -416 0
-363 -417 0
-364 -418 0
-365 -419 0
-366 -420 0
-367 -421 0
-368 -422 0
-369 -423 0
-361 -424 0
-362 -425 0
-363 -426 0
-364 -427 0
-365 -428 0
-366 -429 0
-367 -430 0
-368 -431 0
-369 -432 0
-361 -433 0
-362 -434 0
-363 -435 0
-364 -436 0
-365 -437 0
-366 -438 0
-367 -439 0
-368 -440 0
-369 -441 0
-361 -442 0
-362 -443 0
-363 -444 0
-364 -445 0
-365 -446 0
-366 -447 0
-367 -448 0
-368 -449 0
-369 -450 0
-361 -451 0
-362 -452 0
-363 -453 0
-364 -454 0
-365 -455 0
-366 -456 0
-367 -457 0
-368 -458 0
-369 -459 0
-361 -523 0
-362 -524 0
-363 -525 0
-364 -526 0
-365 -527 0
-366 -528 0
-367 -529 0
-368 -530 0
-369 -531 0
-361 -532 0
-362 -533 0
-363 -534 0
-364 -535 0
-365 -536 0
-366 -537 0
-367 -538 0
-368 -539 0
-369 -540 0
-361 -541 0
-362 -542 0
-363 -543 0
-364 -544 0
-365 -545 0
-366 -546 0
-367 -547 0
-368 -548 0
-369 -549 0
-361 -550 0
-362 -551 0
-363 -552 0
-364 -553 0
-365 -554 0
-366 -555 0
-367 -556 0
-368 -557 0
-369 -558 0
-361 -559 0
-362 -560 0
-363 -561 0
-364 -562 0
-365 -563 0
-366 -564 0
-367 -565 0
-368 -566 0
-369 -567 0
-361 -568 0
-362 -569 0
-363 -570 0
-364 -571 0
-365 -572 0
-366 -573 0
-367 -574 0
-368 -575 0
-369 -576 0
-361 -586 0
-362 -587 0
-363 -588 0
-364 -589 0
-365 -590 0
-366 -591 0
-367 -592 0
-368 -593 0
-369 -594 0
-361 -595 0
-362 -596 0
-363 -597 0
-364 -598 0
-365 -599 0
-366 -600 0
-367 -601 0
-368 -602 0
-369 -603 0
-361 -604 0
-362 -605 0
-363 -606 0
-364 -607 0
-365 -608 0
-366 -609 0
-367 -610 0
-368 -611 0
-369 -612 0
-361 -910 0
-362 -911 0
-363 -912 0
-364 -913 0
-365 -914 0
-366 -915 0
-367 -916 0
-368 -917 0
-369 -918 0
-361 -928 0
-362 -929 0
-363 -930 0
-364 -931 0
-365 -932 0
-366 -933 0
-367 -934 0
-368 -935 0
-369 -936 0
-361 -964 0
-362 -965 0
-363 -966 0
-364 -967 0
-365 -968 0
-366 -969 0
-367 -970 0
-368 -971 0
-369 -972 0
-361 -1594 0
-362 -1595 0
-363 -1596 0
-364 -1597 0
-365 -1598 0
-366 -1599 0
-367 -1600 0
-368 -1601 0
-369 -1602 0
-361 -1621 0
-362 -1622 0
-363 -1623 0
-364 -1624 0
-365 -1625 0
-366 -1626 0
-367 -1627 0
-368 -1628 0
-369 -1629 0
-361 -1630 0
-362 -1631 0
-363 -1632 0
-364 -1633 0
-365 -1634 0
-366 -1635 0
-367 -1636 0
-368 -1637 0
-369 -1638 0
-361 -1684 0
-362 -1685 0
-363 -1686 0
-364 -1687 0
-365 -1688 0
-366 -1689 0
-367 -1690 0
-368 -1691 0
-369 -1692 0
-361 -1693 0
-362 -1694 0
-363 -1695 0
-364 -1696 0
-365 -1697 0
-366 -1698 0
-367 -1699 0
-368 -1700 0
-369 -1701 0
-361 -1792 0
-362 -1793 0
-363 -1794 0
-364 -1795 0
-365 -1796 0
-366 -1797 0
-367 -1798 0
-368 -1799 0
-369 -1800 0
-361 -1801 0
-362 -1802 0
-363 -1803 0
-364 -1804 0
-365 -1805 0
-366 -1806 0
-367 -1807 0
-368 -1808 0
-369 -1809 0
-361 -1846 0
-362 -1847 0
-363 -1848 0
-364 -1849 0
-365 -1850 0
-366 -1851 0
-367 -1852 0
-368 -1853 0
-369 -1854 0
-361 -1855 0
-362 -1856 0
-363 -1857 0
-364 -1858 0
-365 -1859 0
-366 -1860 0
-367 -1861 0
-368 -1862 0
-369 -1863 0
-361 -1900 0
-362 -1901 0
-363 -1902 0
-364 -1903 0
-365 -1904 0
-366 -1905 0
-367 -1906 0
-368 -1907 0
-369 -1908 0
-361 -1909 0
-362 -1910 0
-363 -1911 0
-364 -1912 0
-365 -1913 0
-366 -1914 0
-367 -1915 0
-368 -1916 0
-369 -1917 0
-361 -1981 0
-362 -1982 0
-363 -1983 0
-364 -1984 0
-365 -1985 0
-366 -1986 0
-367 -1987 0
-368 -1988 0
-369 -1989 0
-361 -1999 0
-362 -2000 0
-363 -2001 0
-364 -2002 0
-365 -2003 0
-366 -2004 0
-367 -2005 0
-368 -2006 0
-369 -2007 0
-361 -2062 0
-362 -2063 0
-363 -2064 0
-364 -2065 0
-365 -2066 0
-366 -2067 0
-367 -2068 0
-368 -2069 0
-369 -2070 0
-361 -2071 0
-362 -2072 0
-363 -2073 0
-364 -2074 0
-365 -2075 0
-366 -2076 0
-367 -2077 0
-368 -2078 0
-369 -2079 0
-361 -2116 0
-362 -2117 0
-363 -2118 0
-364 -2119 0
-365 -2120 0
-366 -2121 0
-367 -2122 0
-368 -2123 0
-369 -2124 0
-361 -2125 0
-362 -2126 0
-363 -2127 0
-364 -2128 0
-365 -2129 0
-366 -2130 0
-367 -2131 0
-368 -2132 0
-369 -2133 0
-361 -2179 0
-362 -2180 0
-363 -2181 0
-364 -2182 0
-365 -2183 0
-366 -2184 0
-367 -2185 0
-368 -2186 0
-369 -2187 0
-361 -2206 0
-362 -2207 0
-363 -2208 0
-364 -2209 0
-365 -2210 0
-366 -2211 0
-367 -2212 0
-368 -2213 0
-369 -2214 0
-361 -2278 0
-362 -2279 0
-363 -2280 0
-364 -2281 0
-365 -2282 0
-366 -2283 0
-367 -2284 0
-368 -2285 0
-369 -2286 0
-361 -2485 0
-362 -2486 0
-363 -2487 0
-364 -2488 0
-365 -2489 0
-366 -2490 0
-367 -2491 0
-368 -2492 0
-369 -2493 0
-361 -2746 0
-362 -2747 0
-363 -2748 0
-364 -2749 0
-365 -2750 0
-366 -2751 0
-367 -2752 0
-368 -2753 0
-369 -2754 0
-361 -2773 0
-362 -2774 0
-363 -2775 0
-364 -2776 0
-365 -2777 0
-366 -2778 0
-367 -2779 0
-368 -2780 0
-369 -2781 0
-361 -2809 0
-362 -2810 0
-363 -2811 0
-364 -2812 0
-365 -2813 0
-366 -2814 0
-367 -2815 0
-368 -2816 0
-369 -2817 0
-361 -2827 0
-362 -2828 0
-363 -2829 0
-364 -2830 0
-365 -2831 0
-366 -2832 0
-367 -2833 0
-368 -2834 0
-369 -2835 0
-361 -2854 0
-362 -2855 0
-363 -2856 0
-364 -2857 0
-365 -2858 0
-366 -2859 0
-367 -2860 0
-368 -2861 0
-369 -2862 0
-361 -2872 0
-362 -2873 0
-363 -2874 0
-364 -2875 0
-365 -2876 0
-366 -2877 0
-367 -2878 0
-368 -2879 0
-369 -2880 0
-361 -2899 0
-362 -2900 0
-363 -2901 0
-364 -2902 0
-365 -2903 0
-366 -2904 0
-367 -2905 0
-368 -2906 0
-369 -2907 0
-361 -2908 0
-362 -2909 0
-363 -2910 0
-364 -2911 0
-365 -2912 0
-366 -2913 0
-367 -2914 0
-368 -2915 0
-369 -2916 0
-361 -2917 0
-362 -2918 0
-363 -2919 0
-364 -2920 0
-365 -2921 0
-366 -2922 0
-367 -2923 0
-368 -2924 0
-369 -2925 0
-370 -379 0
-371 -380 0
-372 -381 0
-373 -382 0
-374 -383 0
-375 -384 0
-376 -385 0
-377 -386 0
-378 -387 0
-370 -388 0
-371 -389 0
-372 -390 0
-373 -391 0
-374 -392 0
-375 -393 0
-376 -394 0
-377 -395 0
-378 -396 0
-370 -424 0
-371 -425 0
-372 -426 0
-373 -427 0
-374 -428 0
-375 -429 0
-376 -430 0
-377 -431 0
-378 -432 0
-370 -433 0
-371 -434 0
-372 -435 0
-373 -436 0
-374 -437 0
-375 -438 0
-376 -439 0
-377 -440 0
-378 -441 0
-370 -460 0
-371 -461 0
-372 -462 0
-373 -463 0
-374 -464 0
-375 -465 0
-376 -466 0
-377 -467 0
-378 -468 0
-370 -523 0
-371 -524 0
-372 -525 0
-373 -526 0
-374 -527 0
-375 -528 0
-376 -529 0
-377 -530 0
-378 -531 0
-370 -586 0
-371 -587 0
-372 -588 0
-373 -589 0
-374 -590 0
-375 -591 0
-376 -592 0
-377 -593 0
-378 -594 0
-370 -595 0
-371 -596 0
-372 -597 0
-373 -598 0
-374 -599 0
-375 -600 0
-376 -601 0
-377 -602 0
-378 -603 0
-370 -613 0
-371 -614 0
-372 -615 0
-373 -616 0
-374 -617 0
-375 -618 0
-376 -619 0
-377 -620 0
-378 -621 0
-370 -622 0
-371 -623 0
-372 -624 0
-373 -625 0
-374 -626 0
-375 -627 0
-376 -628 0
-377 -629 0
-378 -630 0
-370 -730 0
-371 -731 0
-372 -732 0
-373 -733 0
-374 -734 0
-375 -735 0
-376 -736 0
-377 -737 0
-378 -738 0
-370 -739 0
-371 -740 0
-372 -741 0
-373 -742 0
-374 -743 0
-375 -744 0
-376 -745 0
-377 -746 0
-378 -747 0
-370 -793 0
-371 -794 0
-372 -795 0
-373 -796 0
-374 -797 0
-375 -798 0
-376 -799 0
-377 -800 0
-378 -801 0
-370 -838 0
-371 -839 0
-372 -840 0
-373 -841 0
-374 -842 0
-375 -843 0
-376 -844 0
-377 -845 0
-378 -846 0
-370 -847 0
-371 -848 0
-372 -849 0
-373 -850 0
-374 -851 0
-375 -852 0
-376 -853 0
-377 -854 0
-378 -855 0
-370 -919 0
-371 -920 0
-372 -921 0
-373 -922 0
-374 -923 0
-375 -924 0
-376 -925 0
-377 -926 0
-378 -927 0
-370 -937 0
-371 -938 0
-372 -939 0
-373 -940 0
-374 -941 0
-375 -942 0
-376 -943 0
-377 -944 0
-378 -945 0
-370 -973 0
-371 -974 0
-372 -975 0
-373 -976 0
-374 -977 0
-375 -978 0
-376 -979 0
-377 -980 0
-378 -981 0
-370 -1198 0
-371 -1199 0
-372 -1200 0
-373 -1201 0
-374 -1202 0
-375 -1203 0
-376 -1204 0
-377 -1205 0
-378 -1206 0
-370 -1405 0
-371 -1406 0
-372 -1407 0
-373 -1408 0
-374 -1409 0
-375 -1410 0
-376 -1411 0
-377 -1412 0
-378 -1413 0
-370 -1639 0
-371 -1640 0
-372 -1641 0
-373 -1642 0
-374 -1643 0
-375 -1644 0
-376 -1645 0
-377 -1646 0
-378 -1647 0
-370 -1648 0
-371 -1649 0
-372 -1650 0
-373 -1651 0
-374 -1652 0
-375 -1653 0
-376 -1654 0
-377 -1655 0
-378 -1656 0
-370 -1738 0
-371 -1739 0
-372 -1740 0
-373 -1741 0
-374 -1742 0
-375 -1743 0
-376 -1744 0
-377 -1745 0
-378 -1746 0
-370 -1747 0
-371 -1748 0
-372 -1749 0
-373 -1750 0
-374 -1751 0
-375 -1752 0
-376 -1753 0
-377 -1754 0
-378 -1755 0
-370 -1828 0
-371 -1829 0
-372 -1830 0
-373 -1831 0
-374 -1832 0
-375 -1833 0
-376 -1834 0
-377 -1835 0
-378 -1836 0
-370 -1891 0
-371 -1892 0
-372 -1893 0
-373 -1894 0
-374 -1895 0
-375 -1896 0
-376 -1897 0
-377 -1898 0
-378 -1899 0
-370 -1936 0
-371 -1937 0
-372 -1938 0
-373 -1939 0
-374 -1940 0
-375 -1941 0
-376 -1942 0
-377 -1943 0
-378 -1944 0
-370 -1954 0
-371 -1955 0
-372 -1956 0
-373 -1957 0
-374 -1958 0
-375 -1959 0
-376 -1960 0
-377 -1961 0
-378 -1962 0
-370 -1972 0
-371 -1973 0
-372 -1974 0
-373 -1975 0
-374 -1976 0
-375 -1977 0
-376 -1978 0
-377 -1979 0
-378 -1980 0
-370 -2044 0
-371 -2045 0
-372 -2046 0
-373 -2047 0
-374 -2048 0
-375 -2049 0
-376 -2050 0
-377 -2051 0
-378 -2052 0
-370 -2107 0
-371 -2108 0
-372 -2109 0
-373 -2110 0
-374 -2111 0
-375 -2112 0
-376 -2113 0
-377 -2114 0
-378 -2115 0
-370 -2161 0
-371 -2162 0
-372 -2163 0
-373 -2164 0
-374 -2165 0
-375 -2166 0
-376 -2167 0
-377 -2168 0
-378 -2169 0
-370 -2188 0
-371 -2189 0
-372 -2190 0
-373 -2191 0
-374 -2192 0
-375 -2193 0
-376 -2194 0
-377 -2195 0
-378 -2196 0
-370 -2260 0
-371 -2261 0
-372 -2262 0
-373 -2263 0
-374 -2264 0
-375 -2265 0
-376 -2266 0
-377 -2267 0
-378 -2268 0
-370 -2278 0
-371 -2279 0
-372 -2280 0
-373 -2281 0
-374 -2282 0
-375 -2283 0
-376 -2284 0
-377 -2285 0
-378 -2286 0
-370 -2332 0
-371 -2333 0
-372 -2334 0
-373 -2335 0
-374 -2336 0
-375 -2337 0
-376 -2338 0
-377 -2339 0
-378 -2340 0
-370 -2503 0
-371 -2504 0
-372 -2505 0
-373 -2506 0
-374 -2507 0
-375 -2508 0
-376 -2509 0
-377 -2510 0
-378 -2511 0
-370 -2512 0
-371 -2513 0
-372 -2514 0
-373 -2515 0
-374 -2516 0
-375 -2517 0
-376 -2518 0
-377 -2519 0
-378 -2520 0
-370 -2593 0
-371 -2594 0
-372 -2595 0
-373 -2596 0
-374 -2597 0
-375 -2598 0
-376 -2599 0
-377 -2600 0
-378 -2601 0
-370 -2638 0
-371 -2639 0
-372 -2640 0
-373 -2641 0
-374 -2642 0
-375 -2643 0
-376 -2644 0
-377 -2645 0
-378 -2646 0
-370 -2791 0
-371 -2792 0
-372 -2793 0
-373 -2794 0
-374 -2795 0
-375 -2796 0
-376 -2797 0
-377 -2798 0
-378 -2799 0
-370 -2800 0
-371 -2801 0
-372 -2802 0
-373 -2803 0
-374 -2804 0
-375 -2805 0
-376 -2806 0
-377 -2807 0
-378 -2808 0
-370 -2818 0
-371 -2819 0
-372 -2820 0
-373 -2821 0
-374 -2822 0
-375 -2823 0
-376 -2824 0
-377 -2825 0
-378 -2826 0
-370 -2845 0
-371 -2846 0
-372 -2847 0
-373 -2848 0
-374 -2849 0
-375 -2850 0
-376 -2851 0
-377 -2852 0
-378 -2853 0
-370 -2899 0
-371 -2900 0
-372 -2901 0
-373 -2902 0
-374 -2903 0
-375 -2904 0
-376 -2905 0
-377 -2906 0
-378 -2907 0
-370 -2908 0
-371 -2909 0
-372 -2910 0
-373 -2911 0
-374 -2912 0
-375 -2913 0
-376 -2914 0
-377 -2915 0
-378 -2916 0
-379 -388 0
-380 -389 0
-381 -390 0
-382 -391 0
-383 -392 0
-384 -393 0
-385 -394 0
-386 -395 0
-387 -396 0
-379 -424 0
-380 -425 0
-381 -426 0
-382 -427 0
-383 -428 0
-384 -429 0
-385 -430 0
-386 -431 0
-387 -432 0
-379 -451 0
-380 -452 0
-381 -453 0
-382 -454 0
-383 -455 0
-384 -456 0
-385 -457 0
-386 -458 0
-387 -459 0
-379 -460 0
-380 -461 0
-381 -462 0
-382 -463 0
-383 -464 0
-384 -465 0
-385 -466 0
-386 -467 0
-387 -468 0
-379 -532 0
-380 -533 0
-381 -534 0
-382 -535 0
-383 -536 0
-384 -537 0
-385 -538 0
-386 -539 0
-387 -540 0
-379 -586 0
-380 -587 0
-381 -588 0
-382 -589 0
-383 -590 0
-384 -591 0
-385 -592 0
-386 -593 0
-387 -594 0
-379 -604 0
-380 -605 0
-381 -606 0
-382 -607 0
-383 -608 0
-384 -609 0
-385 -610 0
-386 -611 0
-387 -612 0
-379 -631 0
-380 -632 0
-381 -633 0
-382 -634 0
-383 -635 0
-384 -636 0
-385 -637 0
-386 -638 0
-387 -639 0
-379 -649 0
-380 -650 0
-381 -651 0
-382 -652 0
-383 -653 0
-384 -654 0
-385 -655 0
-386 -656 0
-387 -657 0
-379 -748 0
-380 -749 0
-381 -750 0
-382 -751 0
-383 -752 0
-384 -753 0
-385 -754 0
-386 -755 0
-387 -756 0
-379 -775 0
-380 -776 0
-381 -777 0
-382 -778 0
-383 -779 0
-384 -780 0
-385 -781 0
-386 -782 0
-387 -783 0
-379 -793 0
-380 -794 0
-381 -795 0
-382 -796 0
-383 -797 0
-384 -798 0
-385 -799 0
-386 -800 0
-387 -801 0
-379 -874 0
-380 -875 0
-381 -876 0
-382 -877 0
-383 -878 0
-384 -879 0
-385 -880 0
-386 -881 0
-387 -882 0
-379 -892 0
-380 -893 0
-381 -894 0
-382 -895 0
-383 -896 0
-384 -897 0
-385 -898 0
-386 -899 0
-387 -900 0
-379 -946 0
-380 -947 0
-381 -948 0
-382 -949 0
-383 -950 0
-384 -951 0
-385 -952 0
-386 -953 0
-387 -954 0
-379 -982 0
-380 -983 0
-381 -984 0
-382 -985 0
-383 -986 0
-384 -987 0
-385 -988 0
-386 -989 0
-387 -990 0
-379 -1000 0
-380 -1001 0
-381 -1002 0
-382 -1003 0
-383 -1004 0
-384 -1005 0
-385 -1006 0
-386 -1007 0
-387 -1008 0
-379 -1207 0
-380 -1208 0
-381 -1209 0
-382 -1210 0
-383 -1211 0
-384 -1212 0
-385 -1213 0
-386 -1214 0
-387 -1215 0
-379 -1576 0
-380 -1577 0
-381 -1578 0
-382 -1579 0
-383 -1580 0
-384 -1581 0
-385 -1582 0
-386 -1583 0
-387 -1584 0
-379 -1603 0
-380 -1604 0
-381 -1605 0
-382 -1606 0
-383 -1607 0
-384 -1608 0
-385 -1609 0
-386 -1610 0
-387 -1611 0
-379 -1666 0
-380 -1667 0
-381 -1668 0
-382 -1669 0
-383 -1670 0
-384 -1671 0
-385 -1672 0
-386 -1673 0
-387 -1674 0
-379 -1720 0
-380 -1721 0
-381 -1722 0
-382 -1723 0
-383 -1724 0
-384 -1725 0
-385 -1726 0
-386 -1727 0
-387 -1728 0
-379 -1756 0
-380 -1757 0
-381 -1758 0
-382 -1759 0
-383 -1760 0
-384 -1761 0
-385 -1762 0
-386 -1763 0
-387 -1764 0
-379 -1774 0
-380 -1775 0
-381 -1776 0
-382 -1777 0
-383 -1778 0
-384 -1779 0
-385 -1780 0
-386 -1781 0
-387 -1782 0
-379 -1864 0
-380 -1865 0
-381 -1866 0
-382 -1867 0
-383 -1868 0
-384 -1869 0
-385 -1870 0
-386 -1871 0
-387 -1872 0
-379 -1882 0
-380 -1883 0
-381 -1884 0
-382 -1885 0
-383 -1886 0
-384 -1887 0
-385 -1888 0
-386 -1889 0
-387 -1890 0
-379 -1990 0
-380 -1991 0
-381 -1992 0
-382 -1993 0
-383 -1994 0
-384 -1995 0
-385 -1996 0
-386 -1997 0
-387 -1998 0
-379 -2017 0
-380 -2018 0
-381 -2019 0
-382 -2020 0
-383 -2021 0
-384 -2022 0
-385 -2023 0
-386 -2024 0
-387 -2025 0
-379 -2053 0
-380 -2054 0
-381 -2055 0
-382 -2056 0
-383 -2057 0
-384 -2058 0
-385 -2059 0
-386 -2060 0
-387 -2061 0
-379 -2089 0
-380 -2090 0
-381 -2091 0
-382 -2092 0
-383 -2093 0
-384 -2094 0
-385 -2095 0
-386 -2096 0
-387 -2097 0
-379 -2170 0
-380 -2171 0
-381 -2172 0
-382 -2173 0
-383 -2174 0
-384 -2175 0
-385 -2176 0
-386 -2177 0
-387 -2178 0
-379 -2215 0
-380 -2216 0
-381 -2217 0
-382 -2218 0
-383 -2219 0
-384 -2220 0
-385 -2221 0
-386 -2222 0
-387 -2223 0
-379 -2278 0
-380 -2279 0
-381 -2280 0
-382 -2281 0
-383 -2282 0
-384 -2283 0
-385 -2284 0
-386 -2285 0
-387 -2286 0
-379 -2287 0
-380 -2288 0
-381 -2289 0
-382 -2290 0
-383 -2291 0
-384 -2292 0
-385 -2293 0
-386 -2294 0
-387 -2295 0
-379 -2395 0
-380 -2396 0
-381 -2397 0
-382 -2398 0
-383 -2399 0
-384 -2400 0
-385 -2401 0
-386 -2402 0
-387 -2403 0
-379 -2449 0
-380 -2450 0
-381 -2451 0
-382 -2452 0
-383 -2453 0
-384 -2454 0
-385 -2455 0
-386 -2456 0
-387 -2457 0
-379 -2467 0
-380 -2468 0
-381 -2469 0
-382 -2470 0
-383 -2471 0
-384 -2472 0
-385 -2473 0
-386 -2474 0
-387 -2475 0
-379 -2602 0
-380 -2603 0
-381 -2604 0
-382 -2605 0
-383 -2606 0
-384 -2607 0
-385 -2608 0
-386 -2609 0
-387 -2610 0
-379 -2656 0
-380 -2657 0
-381 -2658 0
-382 -2659 0
-383 -2660 0
-384 -2661 0
-385 -2662 0
-386 -2663 0
-387 -2664 0
-379 -2737 0
-380 -2738 0
-381 -2739 0
-382 -2740 0
-383 -2741 0
-384 -2742 0
-385 -2743 0
-386 -2744 0
-387 -2745 0
-379 -2755 0
-380 -2756 0
-381 -2757 0
-382 -2758 0
-383 -2759 0
-384 -2760 0
-385 -2761 0
-386 -2762 0
-387 -2763 0
-379 -2836 0
-380 -2837 0
-381 -2838 0
-382 -2839 0
-383 -2840 0
-384 -2841 0
-385 -2842 0
-386 -2843 0
-387 -2844 0
-379 -2881 0
-380 -2882 0
-381 -2883 0
-382 -2884 0
-383 -2885 0
-384 -2886 0
-385 -2887 0
-386 -2888 0
-387 -2889 0
-379 -2899 0
-380 -2900 0
-381 -2901 0
-382 -2902 0
-383 -2903 0
-384 -2904 0
-385 -2905 0
-386 -2906 0
-387 -2907 0
-379 -2917 0
-380 -2918 0
-381 -2919 0
-382 -2920 0
-383 -2921 0
-384 -2922 0
-385 -2923 0
-386 -2924 0
-387 -2925 0
-388 -433 0
-389 -434 0
-390 -435 0
-391 -436 0
-392 -437 0
-393 -438 0
-394 -439 0
-395 -440 0
-396 -441 0
-388 -451 0
-389 -452 0
-390 -453 0
-391 -454 0
-392 -455 0
-393 -456 0
-394 -457 0
-395 -458 0
-396 -459 0
-388 -460 0
-389 -461 0
-390 -462 0
-391 -463 0
-392 -464 0
-393 -465 0
-394 -466 0
-395 -467 0
-396 -468 0
-388 -541 0
-389 -542 0
-390 -543 0
-391 -544 0
-392 -545 0
-393 -546 0
-394 -547 0
-395 -548 0
-396 -549 0
-388 -595 0
-389 -596 0
-390 -597 0
-391 -598 0
-392 -599 0
-393 -600 0
-394 -601 0
-395 -602 0
-396 -603 0
-388 -604 0
-389 -605 0
-390 -606 0
-391 -607 0
-392 -608 0
-393 -609 0
-394 -610 0
-395 -611 0
-396 -612 0
-388 -640 0
-389 -641 0
-390 -642 0
-391 -643 0
-392 -644 0
-393 -645 0
-394 -646 0
-395 -647 0
-396 -648 0
-388 -658 0
-389 -659 0
-390 -660 0
-391 -661 0
-392 -662 0
-393 -663 0
-394 -664 0
-395 -665 0
-396 -666 0
-388 -757 0
-389 -758 0
-390 -759 0
-391 -760 0
-392 -761 0
-393 -762 0
-394 -763 0
-395 -764 0
-396 -765 0
-388 -784 0
-389 -785 0
-390 -786 0
-391 -787 0
-392 -788 0
-393 -789 0
-394 -790 0
-395 -791 0
-396 -792 0
-388 -793 0
-389 -794 0
-390 -795 0
-391 -796 0
-392 -797 0
-393 -798 0
-394 -799 0
-395 -800 0
-396 -801 0
-388 -883 0
-389 -884 0
-390 -885 0
-391 -886 0
-392 -887 0
-393 -888 0
-394 -889 0
-395 -890 0
-396 -891 0
-388 -901 0
-389 -902 0
-390 -903 0
-391 -904 0
-392 -905 0
-393 -906 0
-394 -907 0
-395 -908 0
-396 -909 0
-388 -955 0
-389 -956 0
-390 -957 0
-391 -958 0
-392 -959 0
-393 -960 0
-394 -961 0
-395 -962 0
-396 -963 0
-388 -991 0
-389 -992 0
-390 -993 0
-391 -994 0
-392 -995 0
-393 -996 0
-394 -997 0
-395 -998 0
-396 -999 0
-388 -1009 0
-389 -1010 0
-390 -1011 0
-391 -1012 0
-392 -1013 0
-393 -1014 0
-394 -1015 0
-395 -1016 0
-396 -1017 0
-388 -1414 0
-389 -1415 0
-390 -1416 0
-391 -1417 0
-392 -1418 0
-393 -1419 0
-394 -1420 0
-395 -1421 0
-396 -1422 0
-388 -1585 0
-389 -1586 0
-390 -1587 0
-391 -1588 0
-392 -1589 0
-393 -1590 0
-394 -1591 0
-395 -1592 0
-396 -1593 0
-388 -1612 0
-389 -1613 0
-390 -1614 0
-391 -1615 0
-392 -1616 0
-393 -1617 0
-394 -1618 0
-395 -1619 0
-396 -1620 0
-388 -1657 0
-389 -1658 0
-390 -1659 0
-391 -1660 0
-392 -1661 0
-393 -1662 0
-394 -1663 0
-395 -1664 0
-396 -1665 0
-388 -1711 0
-389 -1712 0
-390 -1713 0
-391 -1714 0
-392 -1715 0
-393 -1716 0
-394 -1717 0
-395 -1718 0
-396 -1719 0
-388 -1765 0
-389 -1766 0
-390 -1767 0
-391 -1768 0
-392 -1769 0
-393 -1770 0
-394 -1771 0
-395 -1772 0
-396 -1773 0
-388 -1783 0
-389 -1784 0
-390 -1785 0
-391 -1786 0
-392 -1787 0
-393 -1788 0
-394 -1789 0
-395 -1790 0
-396 -1791 0
-388 -1837 0
-389 -1838 0
-390 -1839 0
-391 -1840 0
-392 -1841 0
-393 -1842 0
-394 -1843 0
-395 -1844 0
-396 -1845 0
-388 -1873 0
-389 -1874 0
-390 -1875 0
-391 -1876 0
-392 -1877 0
-393 -1878 0
-394 -1879 0
-395 -1880 0
-396 -1881 0
-388 -1963 0
-389 -1964 0
-390 -1965 0
-391 -1966 0
-392 -1967 0
-393 -1968 0
-394 -1969 0
-395 -1970 0
-396 -1971 0
-388 -2008 0
-389 -2009 0
-390 -2010 0
-391 -2011 0
-392 -2012 0
-393 -2013 0
-394 -2014 0
-395 -2015 0
-396 -2016 0
-388 -2080 0
-389 -2081 0
-390 -2082 0
-391 -2083 0
-392 -2084 0
-393 -2085 0
-394 -2086 0
-395 -2087 0
-396 -2088 0
-388 -2098 0
-389 -2099 0
-390 -2100 0
-391 -2101 0
-392 -2102 0
-393 -2103 0
-394 -2104 0
-395 -2105 0
-396 -2106 0
-388 -2197 0
-389 -2198 0
-390 -2199 0
-391 -2200 0
-392 -2201 0
-393 -2202 0
-394 -2203 0
-395 -2204 0
-396 -2205 0
-388 -2224 0
-389 -2225 0
-390 -2226 0
-391 -2227 0
-392 -2228 0
-393 -2229 0
-394 -2230 0
-395 -2231 0
-396 -2232 0
-388 -2278 0
-389 -2279 0
-390 -2280 0
-391 -2281 0
-392 -2282 0
-393 -2283 0
-394 -2284 0
-395 -2285 0
-396 -2286 0
-388 -2350 0
-389 -2351 0
-390 -2352 0
-391 -2353 0
-392 -2354 0
-393 -2355 0
-394 -2356 0
-395 -2357 0
-396 -2358 0
-388 -2404 0
-389 -2405 0
-390 -2406 0
-391 -2407 0
-392 -2408 0
-393 -2409 0
-394 -2410 0
-395 -2411 0
-396 -2412 0
-388 -2458 0
-389 -2459 0
-390 -2460 0
-391 -2461 0
-392 -2462 0
-393 -2463 0
-394 -2464 0
-395 -2465 0
-396 -2466 0
-388 -2476 0
-389 -2477 0
-390 -2478 0
-391 -2479 0
-392 -2480 0
-393 -2481 0
-394 -2482 0
-395 -2483 0
-396 -2484 0
-388 -2647 0
-389 -2648 0
-390 -2649 0
-391 -2650 0
-392 -2651 0
-393 -2652 0
-394 -2653 0
-395 -2654 0
-396 -2655 0
-388 -2665 0
-389 -2666 0
-390 -2667 0
-391 -2668 0
-392 -2669 0
-393 -2670 0
-394 -2671 0
-395 -2672 0
-396 -2673 0
-388 -2764 0
-389 -2765 0
-390 -2766 0
-391 -2767 0
-392 -2768 0
-393 -2769 0
-394 -2770 0
-395 -2771 0
-396 -2772 0
-388 -2782 0
-389 -2783 0
-390 -2784 0
-391 -2785 0
-392 -2786 0
-393 -2787 0
-394 -2788 0
-395 -2789 0
-396 -2790 0
-388 -2863 0
-389 -2864 0
-390 -2865 0
-391 -2866 0
-392 -2867 0
-393 -2868 0
-394 -2869 0
-395 -2870 0
-396 -2871 0
-388 -2890 0
-389 -2891 0
-390 -2892 0
-391 -2893 0
-392 -2894 0
-393 -2895 0
-394 -2896 0
-395 -2897 0
-396 -2898 0
-388 -2908 0
-389 -2909 0
-390 -2910 0
-391 -2911 0
-392 -2912 0
-393 -2913 0
-394 -2914 0
-395 -2915 0
-396 -2916 0
-388 -2917 0
-389 -2918 0
-390 -2919 0
-391 -2920 0
-392 -2921 0
-393 -2922 0
-394 -2923 0
-395 -2924 0
-396 -2925 0
-397 -406 0
-398 -407 0
-399 -408 0
-400 -409 0
-401 -410 0
-402 -411 0
-403 -412 0
-404 -413 0
-405 -414 0
-397 -415 0
-398 -416 0
-399 -417 0
-400 -418 0
-401 -419 0
-402 -420 0
-403 -421 0
-404 -422 0
-405 -423 0
-397 -442 0
-398 -443 0
-399 -444 0
-400 -445 0
-401 -446 0
-402 -447 0
-403 -448 0
-404 -449 0
-405 -450 0
-397 -460 0
-398 -461 0
-399 -462 0
-400 -463 0
-401 -464 0
-402 -465 0
-403 -466 0
-404 -467 0
-405 -468 0
-397 -469 0
-398 -470 0
-399 -471 0
-400 -472 0
-401 -473 0
-402 -474 0
-403 -475 0
-404 -476 0
-405 -477 0
-397 -478 0
-398 -479 0
-399 -480 0
-400 -481 0
-401 -482 0
-402 -483 0
-403 -484 0
-404 -485 0
-405 -486 0
-397 -487 0
-398 -488 0
-399 -489 0
-400 -490 0
-401 -491 0
-402 -492 0
-403 -493 0
-404 -494 0
-405 -495 0
-397 -496 0
-398 -497 0
-399 -498 0
-400 -499 0
-401 -500 0
-402 -501 0
-403 -502 0
-404 -503 0
-405 -504 0
-397 -505 0
-398 -506 0
-399 -507 0
-400 -508 0
-401 -509 0
-402 -510 0
-403 -511 0
-404 -512 0
-405 -513 0
-397 -514 0
-398 -515 0
-399 -516 0
-400 -517 0
-401 -518 0
-402 -519 0
-403 -520 0
-404 -521 0
-405 -522 0
-397 -577 0
-398 -578 0
-399 -579 0
-400 -580 0
-401 -581 0
-402 -582 0
-403 -583 0
-404 -584 0
-405 -585 0
-397 -1144 0
-398 -1145 0
-399 -1146 0
-400 -1147 0
-401 -1148 0
-402 -1149 0
-403 -1150 0
-404 -1151 0
-405 -1152 0
-397 -1234 0
-398 -1235 0
-399 -1236 0
-400 -1237 0
-401 -1238 0
-402 -1239 0
-403 -1240 0
-404 -1241 0
-405 -1242 0
-397 -1243 0
-398 -1244 0
-399 -1245 0
-400 -1246 0
-401 -1247 0
-402 -1248 0
-403 -1249 0
-404 -1250 0
-405 -1251 0
-397 -1432 0
-398 -1433 0
-399 -1434 0
-400 -1435 0
-401 -1436 0
-402 -1437 0
-403 -1438 0
-404 -1439 0
-405 -1440 0
-397 -1702 0
-398 -1703 0
-399 -1704 0
-400 -1705 0
-401 -1706 0
-402 -1707 0
-403 -1708 0
-404 -1709 0
-405 -1710 0
-397 -1756 0
-398 -1757 0
-399 -1758 0
-400 -1759 0
-401 -1760 0
-402 -1761 0
-403 -1762 0
-404 -1763 0
-405 -1764 0
-397 -1765 0
-398 -1766 0
-399 -1767 0
-400 -1768 0
-401 -1769 0
-402 -1770 0
-403 -1771 0
-404 -1772 0
-405 -1773 0
-397 -1927 0
-398 -1928 0
-399 -1929 0
-400 -1930 0
-401 -1931 0
-402 -1932 0
-403 -1933 0
-404 -1934 0
-405 -1935 0
-397 -1954 0
-398 -1955 0
-399 -1956 0
-400 -1957 0
-401 -1958 0
-402 -1959 0
-403 -1960 0
-404 -1961 0
-405 -1962 0
-397 -1963 0
-398 -1964 0
-399 -1965 0
-400 -1966 0
-401 -1967 0
-402 -1968 0
-403 -1969 0
-404 -1970 0
-405 -1971 0
-397 -2143 0
-398 -2144 0
-399 -2145 0
-400 -2146 0
-401 -2147 0
-402 -2148 0
-403 -2149 0
-404 -2150 0
-405 -2151 0
-397 -2161 0
-398 -2162 0
-399 -2163 0
-400 -2164 0
-401 -2165 0
-402 -2166 0
-403 -2167 0
-404 -2168 0
-405 -2169 0
-397 -2170 0
-398 -2171 0
-399 -2172 0
-400 -2173 0
-401 -2174 0
-402 -2175 0
-403 -2176 0
-404 -2177 0
-405 -2178 0
-397 -2251 0
-398 -2252 0
-399 -2253 0
-400 -2254 0
-401 -2255 0
-402 -2256 0
-403 -2257 0
-404 -2258 0
-405 -2259 0
-397 -2260 0
-398 -2261 0
-399 -2262 0
-400 -2263 0
-401 -2264 0
-402 -2265 0
-403 -2266 0
-404 -2267 0
-405 -2268 0
-397 -2269 0
-398 -2270 0
-399 -2271 0
-400 -2272 0
-401 -2273 0
-402 -2274 0
-403 -2275 0
-404 -2276 0
-405 -2277 0
-397 -2287 0
-398 -2288 0
-399 -2289 0
-400 -2290 0
-401 -2291 0
-402 -2292 0
-403 -2293 0
-404 -2294 0
-405 -2295 0
-397 -2296 0
-398 -2297 0
-399 -2298 0
-400 -2299 0
-401 -2300 0
-402 -2301 0
-403 -2302 0
-404 -2303 0
-405 -2304 0
-397 -2332 0
-398 -2333 0
-399 -2334 0
-400 -2335 0
-401 -2336 0
-402 -2337 0
-403 -2338 0
-404 -2339 0
-405 -2340 0
-397 -2341 0
-398 -2342 0
-399 -2343 0
-400 -2344 0
-401 -2345 0
-402 -2346 0
-403 -2347 0
-404 -2348 0
-405 -2349 0
-397 -2350 0
-398 -2351 0
-399 -2352 0
-400 -2353 0
-401 -2354 0
-402 -2355 0
-403 -2356 0
-404 -2357 0
-405 -2358 0
-397 -2359 0
-398 -2360 0
-399 -2361 0
-400 -2362 0
-401 -2363 0
-402 -2364 0
-403 -2365 0
-404 -2366 0
-405 -2367 0
-397 -2395 0
-398 -2396 0
-399 -2397 0
-400 -2398 0
-401 -2399 0
-402 -2400 0
-403 -2401 0
-404 -2402 0
-405 -2403 0
-397 -2404 0
-398 -2405 0
-399 -2406 0
-400 -2407 0
-401 -2408 0
-402 -2409 0
-403 -2410 0
-404 -2411 0
-405 -2412 0
-397 -2413 0
-398 -2414 0
-399 -2415 0
-400 -2416 0
-401 -2417 0
-402 -2418 0
-403 -2419 0
-404 -2420 0
-405 -2421 0
-397 -2539 0
-398 -2540 0
-399 -2541 0
-400 -2542 0
-401 -2543 0
-402 -2544 0
-403 -2545 0
-404 -2546 0
-405 -2547 0
-397 -2557 0
-398 -2558 0
-399 -2559 0
-400 -2560 0
-401 -2561 0
-402 -2562 0
-403 -2563 0
-404 -2564 0
-405 -2565 0
-397 -2611 0
-398 -2612 0
-399 -2613 0
-400 -2614 0
-401 -2615 0
-402 -2616 0
-403 -2617 0
-404 -2618 0
-405 -2619 0
-397 -2683 0
-398 -2684 0
-399 -2685 0
-400 -2686 0
-401 -2687 0
-402 -2688 0
-403 -2689 0
-404 -2690 0
-405 -2691 0
-397 -2692 0
-398 -2693 0
-399 -2694 0
-400 -2695 0
-401 -2696 0
-402 -2697 0
-403 -2698 0
-404 -2699 0
-405 -2700 0
-397 -2701 0
-398 -2702 0
-399 -2703 0
-400 -2704 0
-401 -2705 0
-402 -2706 0
-403 -2707 0
-404 -2708 0
-405 -2709 0
-397 -2710 0
-398 -2711 0
-399 -2712 0
-400 -2713 0
-401 -2714 0
-402 -2715 0
-403 -2716 0
-404 -2717 0
-405 -2718 0
-397 -2719 0
-398 -2720 0
-399 -2721 0
-400 -2722 0
-401 -2723 0
-402 -2724 0
-403 -2725 0
-404 -2726 0
-405 -2727 0
-397 -2728 0
-398 -2729 0
-399 -2730 0
-400 -2731 0
-401 -2732 0
-402 -2733 0
-403 -2734 0
-404 -2735 0
-405 -2736 0
-406 -415 0
-407 -416 0
-408 -417 0
-409 -418 0
-410 -419 0
-411 -420 0
-412 -421 0
-413 -422 0
-414 -423 0
-406 -442 0
-407 -443 0
-408 -444 0
-409 -445 0
-410 -446 0
-411 -447 0
-412 -448 0
-413 -449 0
-414 -450 0
-406 -460 0
-407 -461 0
-408 -462 0
-409 -463 0
-410 -464 0
-411 -465 0
-412 -466 0
-413 -467 0
-414 -468 0
-406 -469 0
-407 -470 0
-408 -471 0
-409 -472 0
-410 -473 0
-411 -474 0
-412 -475 0
-413 -476 0
-414 -477 0
-406 -487 0
-407 -488 0
-408 -489 0
-409 -490 0
-410 -491 0
-411 -492 0
-412 -493 0
-413 -494 0
-414 -495 0
-406 -523 0
-407 -524 0
-408 -525 0
-409 -526 0
-410 -527 0
-411 -528 0
-412 -529 0
-413 -530 0
-414 -531 0
-406 -532 0
-407 -533 0
-408 -534 0
-409 -535 0
-410 -536 0
-411 -537 0
-412 -538 0
-413 -539 0
-414 -540 0
-406 -550 0
-407 -551 0
-408 -552 0
-409 -553 0
-410 -554 0
-411 -555 0
-412 -556 0
-413 -557 0
-414 -558 0
-406 -559 0
-407 -560 0
-408 -561 0
-409 -562 0
-410 -563 0
-411 -564 0
-412 -565 0
-413 -566 0
-414 -567 0
-406 -676 0
-407 -677 0
-408 -678 0
-409 -679 0
-410 -680 0
-411 -681 0
-412 -682 0
-413 -683 0
-414 -684 0
-406 -703 0
-407 -704 0
-408 -705 0
-409 -706 0
-410 -707 0
-411 -708 0
-412 -709 0
-413 -710 0
-414 -711 0
-406 -739 0
-407 -740 0
-408 -741 0
-409 -742 0
-410 -743 0
-411 -744 0
-412 -745 0
-413 -746 0
-414 -747 0
-406 -775 0
-407 -776 0
-408 -777 0
-409 -778 0
-410 -779 0
-411 -780 0
-412 -781 0
-413 -782 0
-414 -783 0
-406 -811 0
-407 -812 0
-408 -813 0
-409 -814 0
-410 -815 0
-411 -816 0
-412 -817 0
-413 -818 0
-414 -819 0
-406 -838 0
-407 -839 0
-408 -840 0
-409 -841 0
-410 -842 0
-411 -843 0
-412 -844 0
-413 -845 0
-414 -846 0
-406 -856 0
-407 -857 0
-408 -858 0
-409 -859 0
-410 -860 0
-411 -861 0
-412 -862 0
-413 -863 0
-414 -864 0
-406 -874 0
-407 -875 0
-408 -876 0
-409 -877 0
-410 -878 0
-411 -879 0
-412 -880 0
-413 -881 0
-414 -882 0
-406 -928 0
-407 -929 0
-408 -930 0
-409 -931 0
-410 -932 0
-411 -933 0
-412 -934 0
-413 -935 0
-414 -936 0
-406 -964 0
-407 -965 0
-408 -966 0
-409 -967 0
-410 -968 0
-411 -969 0
-412 -970 0
-413 -971 0
-414 -972 0
-406 -1081 0
-407 -1082 0
-408 -1083 0
-409 -1084 0
-410 -1085 0
-411 -1086 0
-412 -1087 0
-413 -1088 0
-414 -1089 0
-406 -1090 0
-407 -1091 0
-408 -1092 0
-409 -1093 0
-410 -1094 0
-411 -1095 0
-412 -1096 0
-413 -1097 0
-414 -1098 0
-406 -1099 0
-407 -1100 0
-408 -1101 0
-409 -1102 0
-410 -1103 0
-411 -1104 0
-412 -1105 0
-413 -1106 0
-414 -1107 0
-406 -1117 0
-407 -1118 0
-408 -1119 0
-409 -1120 0
-410 -1121 0
-411 -1122 0
-412 -1123 0
-413 -1124 0
-414 -1125 0
-406 -1342 0
-407 -1343 0
-408 -1344 0
-409 -1345 0
-410 -1346 0
-411 -1347 0
-412 -1348 0
-413 -1349 0
-414 -1350 0
-406 -1405 0
-407 -1406 0
-408 -1407 0
-409 -1408 0
-410 -1409 0
-411 -1410 0
-412 -1411 0
-413 -1412 0
-414 -1413 0
-406 -1486 0
-407 -1487 0
-408 -1488 0
-409 -1489 0
-410 -1490 0
-411 -1491 0
-412 -1492 0
-413 -1493 0
-414 -1494 0
-406 -1576 0
-407 -1577 0
-408 -1578 0
-409 -1579 0
-410 -1580 0
-411 -1581 0
-412 -1582 0
-413 -1583 0
-414 -1584 0
-406 -1594 0
-407 -1595 0
-408 -1596 0
-409 -1597 0
-410 -1598 0
-411 -1599 0
-412 -1600 0
-413 -1601 0
-414 -1602 0
-406 -1621 0
-407 -1622 0
-408 -1623 0
-409 -1624 0
-410 -1625 0
-411 -1626 0
-412 -1627 0
-413 -1628 0
-414 -1629 0
-406 -1729 0
-407 -1730 0
-408 -1731 0
-409 -1732 0
-410 -1733 0
-411 -1734 0
-412 -1735 0
-413 -1736 0
-414 -1737 0
-406 -1738 0
-407 -1739 0
-408 -1740 0
-409 -1741 0
-410 -1742 0
-411 -1743 0
-412 -1744 0
-413 -1745 0
-414 -1746 0
-406 -1819 0
-407 -1820 0
-408 -1821 0
-409 -1822 0
-410 -1823 0
-411 -1824 0
-412 -1825 0
-413 -1826 0
-414 -1827 0
-406 -1846 0
-407 -1847 0
-408 -1848 0
-409 -1849 0
-410 -1850 0
-411 -1851 0
-412 -1852 0
-413 -1853 0
-414 -1854 0
-406 -1945 0
-407 -1946 0
-408 -1947 0
-409 -1948 0
-410 -1949 0
-411 -1950 0
-412 -1951 0
-413 -1952 0
-414 -1953 0
-406 -1990 0
-407 -1991 0
-408 -1992 0
-409 -1993 0
-410 -1994 0
-411 -1995 0
-412 -1996 0
-413 -1997 0
-414 -1998 0
-406 -2035 0
-407 -2036 0
-408 -2037 0
-409 -2038 0
-410 -2039 0
-411 -2040 0
-412 -2041 0
-413 -2042 0
-414 -2043 0
-406 -2044 0
-407 -2045 0
-408 -2046 0
-409 -2047 0
-410 -2048 0
-411 -2049 0
-412 -2050 0
-413 -2051 0
-414 -2052 0
-406 -2053 0
-407 -2054 0
-408 -2055 0
-409 -2056 0
-410 -2057 0
-411 -2058 0
-412 -2059 0
-413 -2060 0
-414 -2061 0
-406 -2080 0
-407 -2081 0
-408 -2082 0
-409 -2083 0
-410 -2084 0
-411 -2085 0
-412 -2086 0
-413 -2087 0
-414 -2088 0
-406 -2098 0
-407 -2099 0
-408 -2100 0
-409 -2101 0
-410 -2102 0
-411 -2103 0
-412 -2104 0
-413 -2105 0
-414 -2106 0
-406 -2116 0
-407 -2117 0
-408 -2118 0
-409 -2119 0
-410 -2120 0
-411 -2121 0
-412 -2122 0
-413 -2123 0
-414 -2124 0
-406 -2125 0
-407 -2126 0
-408 -2127 0
-409 -2128 0
-410 -2129 0
-411 -2130 0
-412 -2131 0
-413 -2132 0
-414 -2133 0
-406 -2161 0
-407 -2162 0
-408 -2163 0
-409 -2164 0
-410 -2165 0
-411 -2166 0
-412 -2167 0
-413 -2168 0
-414 -2169 0
-406 -2170 0
-407 -2171 0
-408 -2172 0
-409 -2173 0
-410 -2174 0
-411 -2175 0
-412 -2176 0
-413 -2177 0
-414 -2178 0
-406 -2251 0
-407 -2252 0
-408 -2253 0
-409 -2254 0
-410 -2255 0
-411 -2256 0
-412 -2257 0
-413 -2258 0
-414 -2259 0
-406 -2260 0
-407 -2261 0
-408 -2262 0
-409 -2263 0
-410 -2264 0
-411 -2265 0
-412 -2266 0
-413 -2267 0
-414 -2268 0
-406 -2269 0
-407 -2270 0
-408 -2271 0
-409 -2272 0
-410 -2273 0
-411 -2274 0
-412 -2275 0
-413 -2276 0
-414 -2277 0
-406 -2287 0
-407 -2288 0
-408 -2289 0
-409 -2290 0
-410 -2291 0
-411 -2292 0
-412 -2293 0
-413 -2294 0
-414 -2295 0
-406 -2305 0
-407 -2306 0
-408 -2307 0
-409 -2308 0
-410 -2309 0
-411 -2310 0
-412 -2311 0
-413 -2312 0
-414 -2313 0
-406 -2359 0
-407 -2360 0
-408 -2361 0
-409 -2362 0
-410 -2363 0
-411 -2364 0
-412 -2365 0
-413 -2366 0
-414 -2367 0
-406 -2377 0
-407 -2378 0
-408 -2379 0
-409 -2380 0
-410 -2381 0
-411 -2382 0
-412 -2383 0
-413 -2384 0
-414 -2385 0
-406 -2413 0
-407 -2414 0
-408 -2415 0
-409 -2416 0
-410 -2417 0
-411 -2418 0
-412 -2419 0
-413 -2420 0
-414 -2421 0
-406 -2422 0
-407 -2423 0
-408 -2424 0
-409 -2425 0
-410 -2426 0
-411 -2427 0
-412 -2428 0
-413 -2429 0
-414 -2430 0
-406 -2548 0
-407 -2549 0
-408 -2550 0
-409 -2551 0
-410 -2552 0
-411 -2553 0
-412 -2554 0
-413 -2555 0
-414 -2556 0
-406 -2566 0
-407 -2567 0
-408 -2568 0
-409 -2569 0
-410 -2570 0
-411 -2571 0
-412 -2572 0
-413 -2573 0
-414 -2574 0
-406 -2593 0
-407 -2594 0
-408 -2595 0
-409 -2596 0
-410 -2597 0
-411 -2598 0
-412 -2599 0
-413 -2600 0
-414 -2601 0
-406 -2602 0
-407 -2603 0
-408 -2604 0
-409 -2605 0
-410 -2606 0
-411 -2607 0
-412 -2608 0
-413 -2609 0
-414 -2610 0
-406 -2773 0
-407 -2774 0
-408 -2775 0
-409 -2776 0
-410 -2777 0
-411 -2778 0
-412 -2779 0
-413 -2780 0
-414 -2781 0
-406 -2827 0
-407 -2828 0
-408 -2829 0
-409 -2830 0
-410 -2831 0
-411 -2832 0
-412 -2833 0
-413 -2834 0
-414 -2835 0
-406 -2899 0
-407 -2900 0
-408 -2901 0
-409 -2902 0
-410 -2903 0
-411 -2904 0
-412 -2905 0
-413 -2906 0
-414 -2907 0
-406 -2926 0
-407 -2927 0
-408 -2928 0
-409 -2929 0
-410 -2930 0
-411 -2931 0
-412 -2932 0
-413 -2933 0
-414 -2934 0
-406 -2935 0
-407 -2936 0
-408 -2937 0
-409 -2938 0
-410 -2939 0
-411 -2940 0
-412 -2941 0
-413 -2942 0
-414 -2943 0
-415 -442 0
-416 -443 0
-417 -444 0
-418 -445 0
-419 -446 0
-420 -447 0
-421 -448 0
-422 -449 0
-423 -450 0
-415 -460 0
-416 -461 0
-417 -462 0
-418 -463 0
-419 -464 0
-420 -465 0
-421 -466 0
-422 -467 0
-423 -468 0
-415 -478 0
-416 -479 0
-417 -480 0
-418 -481 0
-419 -482 0
-420 -483 0
-421 -484 0
-422 -485 0
-423 -486 0
-415 -496 0
-416 -497 0
-417 -498 0
-418 -499 0
-419 -500 0
-420 -501 0
-421 -502 0
-422 -503 0
-423 -504 0
-415 -523 0
-416 -524 0
-417 -525 0
-418 -526 0
-419 -527 0
-420 -528 0
-421 -529 0
-422 -530 0
-423 -531 0
-415 -541 0
-416 -542 0
-417 -543 0
-418 -544 0
-419 -545 0
-420 -546 0
-421 -547 0
-422 -548 0
-423 -549 0
-415 -550 0
-416 -551 0
-417 -552 0
-418 -553 0
-419 -554 0
-420 -555 0
-421 -556 0
-422 -557 0
-423 -558 0
-415 -568 0
-416 -569 0
-417 -570 0
-418 -571 0
-419 -572 0
-420 -573 0
-421 -574 0
-422 -575 0
-423 -576 0
-415 -667 0
-416 -668 0
-417 -669 0
-418 -670 0
-419 -671 0
-420 -672 0
-421 -673 0
-422 -674 0
-423 -675 0
-415 -712 0
-416 -713 0
-417 -714 0
-418 -715 0
-419 -716 0
-420 -717 0
-421 -718 0
-422 -719 0
-423 -720 0
-415 -730 0
-416 -731 0
-417 -732 0
-418 -733 0
-419 -734 0
-420 -735 0
-421 -736 0
-422 -737 0
-423 -738 0
-415 -784 0
-416 -785 0
-417 -786 0
-418 -787 0
-419 -788 0
-420 -789 0
-421 -790 0
-422 -791 0
-423 -792 0
-415 -802 0
-416 -803 0
-417 -804 0
-418 -805 0
-419 -806 0
-420 -807 0
-421 -808 0
-422 -809 0
-423 -810 0
-415 -847 0
-416 -848 0
-417 -849 0
-418 -850 0
-419 -851 0
-420 -852 0
-421 -853 0
-422 -854 0
-423 -855 0
-415 -865 0
-416 -866 0
-417 -867 0
-418 -868 0
-419 -869 0
-420 -870 0
-421 -871 0
-422 -872 0
-423 -873 0
-415 -883 0
-416 -884 0
-417 -885 0
-418 -886 0
-419 -887 0
-420 -888 0
-421 -889 0
-422 -890 0
-423 -891 0
-415 -910 0
-416 -911 0
-417 -912 0
-418 -913 0
-419 -914 0
-420 -915 0
-421 -916 0
-422 -917 0
-423 -918 0
-415 -964 0
-416 -965 0
-417 -966 0
-418 -967 0
-419 -968 0
-420 -969 0
-421 -970 0
-422 -971 0
-423 -972 0
-415 -1126 0
-416 -1127 0
-417 -1128 0
-418 -1129 0
-419 -1130 0
-420 -1131 0
-421 -1132 0
-422 -1133 0
-423 -1134 0
-415 -1198 0
-416 -1199 0
-417 -1200 0
-418 -1201 0
-419 -1202 0
-420 -1203 0
-421 -1204 0
-422 -1205 0
-423 -1206 0
-415 -1297 0
-416 -1298 0
-417 -1299 0
-418 -1300 0
-419 -1301 0
-420 -1302 0
-421 -1303 0
-422 -1304 0
-423 -1305 0
-415 -1306 0
-416 -1307 0
-417 -1308 0
-418 -1309 0
-419 -1310 0
-420 -1311 0
-421 -1312 0
-422 -1313 0
-423 -1314 0
-415 -1315 0
-416 -1316 0
-417 -1317 0
-418 -1318 0
-419 -1319 0
-420 -1320 0
-421 -1321 0
-422 -1322 0
-423 -1323 0
-415 -1333 0
-416 -1334 0
-417 -1335 0
-418 -1336 0
-419 -1337 0
-420 -1338 0
-421 -1339 0
-422 -1340 0
-423 -1341 0
-415 -1495 0
-416 -1496 0
-417 -1497 0
-418 -1498 0
-419 -1499 0
-420 -1500 0
-421 -1501 0
-422 -1502 0
-423 -1503 0
-415 -1585 0
-416 -1586 0
-417 -1587 0
-418 -1588 0
-419 -1589 0
-420 -1590 0
-421 -1591 0
-422 -1592 0
-423 -1593 0
-415 -1594 0
-416 -1595 0
-417 -1596 0
-418 -1597 0
-419 -1598 0
-420 -1599 0
-421 -1600 0
-422 -1601 0
-423 -1602 0
-415 -1630 0
-416 -1631 0
-417 -1632 0
-418 -1633 0
-419 -1634 0
-420 -1635 0
-421 -1636 0
-422 -1637 0
-423 -1638 0
-415 -1729 0
-416 -1730 0
-417 -1731 0
-418 -1732 0
-419 -1733 0
-420 -1734 0
-421 -1735 0
-422 -1736 0
-423 -1737 0
-415 -1747 0
-416 -1748 0
-417 -1749 0
-418 -1750 0
-419 -1751 0
-420 -1752 0
-421 -1753 0
-422 -1754 0
-423 -1755 0
-415 -1810 0
-416 -1811 0
-417 -1812 0
-418 -1813 0
-419 -1814 0
-420 -1815 0
-421 -1816 0
-422 -1817 0
-423 -1818 0
-415 -1828 0
-416 -1829 0
-417 -1830 0
-418 -1831 0
-419 -1832 0
-420 -1833 0
-421 -1834 0
-422 -1835 0
-423 -1836 0
-415 -1837 0
-416 -1838 0
-417 -1839 0
-418 -1840 0
-419 -1841 0
-420 -1842 0
-421 -1843 0
-422 -1844 0
-423 -1845 0
-415 -1864 0
-416 -1865 0
-417 -1866 0
-418 -1867 0
-419 -1868 0
-420 -1869 0
-421 -1870 0
-422 -1871 0
-423 -1872 0
-415 -1882 0
-416 -1883 0
-417 -1884 0
-418 -1885 0
-419 -1886 0
-420 -1887 0
-421 -1888 0
-422 -1889 0
-423 -1890 0
-415 -1900 0
-416 -1901 0
-417 -1902 0
-418 -1903 0
-419 -1904 0
-420 -1905 0
-421 -1906 0
-422 -1907 0
-423 -1908 0
-415 -1909 0
-416 -1910 0
-417 -1911 0
-418 -1912 0
-419 -1913 0
-420 -1914 0
-421 -1915 0
-422 -1916 0
-423 -1917 0
-415 -1954 0
-416 -1955 0
-417 -1956 0
-418 -1957 0
-419 -1958 0
-420 -1959 0
-421 -1960 0
-422 -1961 0
-423 -1962 0
-415 -1963 0
-416 -1964 0
-417 -1965 0
-418 -1966 0
-419 -1967 0
-420 -1968 0
-421 -1969 0
-422 -1970 0
-423 -1971 0
-415 -2062 0
-416 -2063 0
-417 -2064 0
-418 -2065 0
-419 -2066 0
-420 -2067 0
-421 -2068 0
-422 -2069 0
-423 -2070 0
-415 -2152 0
-416 -2153 0
-417 -2154 0
-418 -2155 0
-419 -2156 0
-420 -2157 0
-421 -2158 0
-422 -2159 0
-423 -2160 0
-415 -2197 0
-416 -2198 0
-417 -2199 0
-418 -2200 0
-419 -2201 0
-420 -2202 0
-421 -2203 0
-422 -2204 0
-423 -2205 0
-415 -2242 0
-416 -2243 0
-417 -2244 0
-418 -2245 0
-419 -2246 0
-420 -2247 0
-421 -2248 0
-422 -2249 0
-423 -2250 0
-415 -2251 0
-416 -2252 0
-417 -2253 0
-418 -2254 0
-419 -2255 0
-420 -2256 0
-421 -2257 0
-422 -2258 0
-423 -2259 0
-415 -2296 0
-416 -2297 0
-417 -2298 0
-418 -2299 0
-419 -2300 0
-420 -2301 0
-421 -2302 0
-422 -2303 0
-423 -2304 0
-415 -2314 0
-416 -2315 0
-417 -2316 0
-418 -2317 0
-419 -2318 0
-420 -2319 0
-421 -2320 0
-422 -2321 0
-423 -2322 0
-415 -2332 0
-416 -2333 0
-417 -2334 0
-418 -2335 0
-419 -2336 0
-420 -2337 0
-421 -2338 0
-422 -2339 0
-423 -2340 0
-415 -2341 0
-416 -2342 0
-417 -2343 0
-418 -2344 0
-419 -2345 0
-420 -2346 0
-421 -2347 0
-422 -2348 0
-423 -2349 0
-415 -2350 0
-416 -2351 0
-417 -2352 0
-418 -2353 0
-419 -2354 0
-420 -2355 0
-421 -2356 0
-422 -2357 0
-423 -2358 0
-415 -2368 0
-416 -2369 0
-417 -2370 0
-418 -2371 0
-419 -2372 0
-420 -2373 0
-421 -2374 0
-422 -2375 0
-423 -2376 0
-415 -2413 0
-416 -2414 0
-417 -2415 0
-418 -2416 0
-419 -2417 0
-420 -2418 0
-421 -2419 0
-422 -2420 0
-423 -2421 0
-415 -2431 0
-416 -2432 0
-417 -2433 0
-418 -2434 0
-419 -2435 0
-420 -2436 0
-421 -2437 0
-422 -2438 0
-423 -2439 0
-415 -2548 0
-416 -2549 0
-417 -2550 0
-418 -2551 0
-419 -2552 0
-420 -2553 0
-421 -2554 0
-422 -2555 0
-423 -2556 0
-415 -2620 0
-416 -2621 0
-417 -2622 0
-418 -2623 0
-419 -2624 0
-420 -2625 0
-421 -2626 0
-422 -2627 0
-423 -2628 0
-415 -2638 0
-416 -2639 0
-417 -2640 0
-418 -2641 0
-419 -2642 0
-420 -2643 0
-421 -2644 0
-422 -2645 0
-423 -2646 0
-415 -2647 0
-416 -2648 0
-417 -2649 0
-418 -2650 0
-419 -2651 0
-420 -2652 0
-421 -2653 0
-422 -2654 0
-423 -2655 0
-415 -2746 0
-416 -2747 0
-417 -2748 0
-418 -2749 0
-419 -2750 0
-420 -2751 0
-421 -2752 0
-422 -2753 0
-423 -2754 0
-415 -2854 0
-416 -2855 0
-417 -2856 0
-418 -2857 0
-419 -2858 0
-420 -2859 0
-421 -2860 0
-422 -2861 0
-423 -2862 0
-415 -2908 0
-416 -2909 0
-417 -2910 0
-418 -2911 0
-419 -2912 0
-420 -2913 0
-421 -2914 0
-422 -2915 0
-423 -2916 0
-415 -2926 0
-416 -2927 0
-417 -2928 0
-418 -2929 0
-419 -2930 0
-420 -2931 0
-421 -2932 0
-422 -2933 0
-423 -2934 0
-415 -2944 0
-416 -2945 0
-417 -2946 0
-418 -2947 0
-419 -2948 0
-420 -2949 0
-421 -2950 0
-422 -2951 0
-423 -2952 0
-424 -478 0
-425 -479 0
-426 -480 0
-427 -481 0
-428 -482 0
-429 -483 0
-430 -484 0
-431 -485 0
-432 -486 0
-424 -505 0
-425 -506 0
-426 -507 0
-427 -508 0
-428 -509 0
-429 -510 0
-430 -511 0
-431 -512 0
-432 -513 0
-424 -541 0
-425 -542 0
-426 -543 0
-427 -544 0
-428 -545 0
-429 -546 0
-430 -547 0
-431 -548 0
-432 -549 0
-424 -550 0
-425 -551 0
-426 -552 0
-427 -553 0
-428 -554 0
-429 -555 0
-430 -556 0
-431 -557 0
-432 -558 0
-424 -559 0
-425 -560 0
-426 -561 0
-427 -562 0
-428 -563 0
-429 -564 0
-430 -565 0
-431 -566 0
-432 -567 0
-424 -577 0
-425 -578 0
-426 -579 0
-427 -580 0
-428 -581 0
-429 -582 0
-430 -583 0
-431 -584 0
-432 -585 0
-424 -622 0
-425 -623 0
-426 -624 0
-427 -625 0
-428 -626 0
-429 -627 0
-430 -628 0
-431 -629 0
-432 -630 0
-424 -649 0
-425 -650 0
-426 -651 0
-427 -652 0
-428 -653 0
-429 -654 0
-430 -655 0
-431 -656 0
-432 -657 0
-424 -757 0
-425 -758 0
-426 -759 0
-427 -760 0
-428 -761 0
-429 -762 0
-430 -763 0
-431 -764 0
-432 -765 0
-424 -784 0
-425 -785 0
-426 -786 0
-427 -787 0
-428 -788 0
-429 -789 0
-430 -790 0
-431 -791 0
-432 -792 0
-424 -793 0
-425 -794 0
-426 -795 0
-427 -796 0
-428 -797 0
-429 -798 0
-430 -799 0
-431 -800 0
-432 -801 0
-424 -802 0
-425 -803 0
-426 -804 0
-427 -805 0
-428 -806 0
-429 -807 0
-430 -808 0
-431 -809 0
-432 -810 0
-424 -820 0
-425 -821 0
-426 -822 0
-427 -823 0
-428 -824 0
-429 -825 0
-430 -826 0
-431 -827 0
-432 -828 0
-424 -1603 0
-425 -1604 0
-426 -1605 0
-427 -1606 0
-428 -1607 0
-429 -1608 0
-430 -1609 0
-431 -1610 0
-432 -1611 0
-424 -1756 0
-425 -1757 0
-426 -1758 0
-427 -1759 0
-428 -1760 0
-429 -1761 0
-430 -1762 0
-431 -1763 0
-432 -1764 0
-424 -1792 0
-425 -1793 0
-426 -1794 0
-427 -1795 0
-428 -1796 0
-429 -1797 0
-430 -1798 0
-431 -1799 0
-432 -1800 0
-424 -1810 0
-425 -1811 0
-426 -1812 0
-427 -1813 0
-428 -1814 0
-429 -1815 0
-430 -1816 0
-431 -1817 0
-432 -1818 0
-424 -1828 0
-425 -1829 0
-426 -1830 0
-427 -1831 0
-428 -1832 0
-429 -1833 0
-430 -1834 0
-431 -1835 0
-432 -1836 0
-424 -1954 0
-425 -1955 0
-426 -1956 0
-427 -1957 0
-428 -1958 0
-429 -1959 0
-430 -1960 0
-431 -1961 0
-432 -1962 0
-424 -1981 0
-425 -1982 0
-426 -1983 0
-427 -1984 0
-428 -1985 0
-429 -1986 0
-430 -1987 0
-431 -1988 0
-432 -1989 0
-424 -2026 0
-425 -2027 0
-426 -2028 0
-427 -2029 0
-428 -2030 0
-429 -2031 0
-430 -2032 0
-431 -2033 0
-432 -2034 0
-424 -2305 0
-425 -2306 0
-426 -2307 0
-427 -2308 0
-428 -2309 0
-429 -2310 0
-430 -2311 0
-431 -2312 0
-432 -2313 0
-424 -2314 0
-425 -2315 0
-426 -2316 0
-427 -2317 0
-428 -2318 0
-429 -2319 0
-430 -2320 0
-431 -2321 0
-432 -2322 0
-424 -2323 0
-425 -2324 0
-426 -2325 0
-427 -2326 0
-428 -2327 0
-429 -2328 0
-430 -2329 0
-431 -2330 0
-432 -2331 0
-424 -2530 0
-425 -2531 0
-426 -2532 0
-427 -2533 0
-428 -2534 0
-429 -2535 0
-430 -2536 0
-431 -2537 0
-432 -2538 0
-424 -2539 0
-425 -2540 0
-426 -2541 0
-427 -2542 0
-428 -2543 0
-429 -2544 0
-430 -2545 0
-431 -2546 0
-432 -2547 0
-424 -2557 0
-425 -2558 0
-426 -2559 0
-427 -2560 0
-428 -2561 0
-429 -2562 0
-430 -2563 0
-431 -2564 0
-432 -2565 0
-424 -2593 0
-425 -2594 0
-426 -2595 0
-427 -2596 0
-428 -2597 0
-429 -2598 0
-430 -2599 0
-431 -2600 0
-432 -2601 0
-424 -2602 0
-425 -2603 0
-426 -2604 0
-427 -2605 0
-428 -2606 0
-429 -2607 0
-430 -2608 0
-431 -2609 0
-432 -2610 0
-424 -2755 0
-425 -2756 0
-426 -2757 0
-427 -2758 0
-428 -2759 0
-429 -2760 0
-430 -2761 0
-431 -2762 0
-432 -2763 0
-424 -2764 0
-425 -2765 0
-426 -2766 0
-427 -2767 0
-428 -2768 0
-429 -2769 0
-430 -2770 0
-431 -2771 0
-432 -2772 0
-424 -2800 0
-425 -2801 0
-426 -2802 0
-427 -2803 0
-428 -2804 0
-429 -2805 0
-430 -2806 0
-431 -2807 0
-432 -2808 0
-424 -2890 0
-425 -2891 0
-426 -2892 0
-427 -2893 0
-428 -2894 0
-429 -2895 0
-430 -2896 0
-431 -2897 0
-432 -2898 0
-424 -2899 0
-425 -2900 0
-426 -2901 0
-427 -2902 0
-428 -2903 0
-429 -2904 0
-430 -2905 0
-431 -2906 0
-432 -2907 0
-433 -469 0
-434 -470 0
-435 -471 0
-436 -472 0
-437 -473 0
-438 -474 0
-439 -475 0
-440 -476 0
-441 -477 0
-433 -514 0
-434 -515 0
-435 -516 0
-436 -517 0
-437 -518 0
-438 -519 0
-439 -520 0
-440 -521 0
-441 -522 0
-433 -532 0
-434 -533 0
-435 -534 0
-436 -535 0
-437 -536 0
-438 -537 0
-439 -538 0
-440 -539 0
-441 -540 0
-433 -550 0
-434 -551 0
-435 -552 0
-436 -553 0
-437 -554 0
-438 -555 0
-439 -556 0
-440 -557 0
-441 -558 0
-433 -568 0
-434 -569 0
-435 -570 0
-436 -571 0
-437 -572 0
-438 -573 0
-439 -574 0
-440 -575 0
-441 -576 0
-433 -577 0
-434 -578 0
-435 -579 0
-436 -580 0
-437 -581 0
-438 -582 0
-439 -583 0
-440 -584 0
-441 -585 0
-433 -613 0
-434 -614 0
-435 -615 0
-436 -616 0
-437 -617 0
-438 -618 0
-439 -619 0
-440 -620 0
-441 -621 0
-433 -658 0
-434 -659 0
-435 -660 0
-436 -661 0
-437 -662 0
-438 -663 0
-439 -664 0
-440 -665 0
-441 -666 0
-433 -748 0
-434 -749 0
-435 -750 0
-436 -751 0
-437 -752 0
-438 -753 0
-439 -754 0
-440 -755 0
-441 -756 0
-433 -775 0
-434 -776 0
-435 -777 0
-436 -778 0
-437 -779 0
-438 -780 0
-439 -781 0
-440 -782 0
-441 -783 0
-433 -793 0
-434 -794 0
-435 -795 0
-436 -796 0
-437 -797 0
-438 -798 0
-439 -799 0
-440 -800 0
-441 -801 0
-433 -811 0
-434 -812 0
-435 -813 0
-436 -814 0
-437 -815 0
-438 -816 0
-439 -817 0
-440 -818 0
-441 -819 0
-433 -829 0
-434 -830 0
-435 -831 0
-436 -832 0
-437 -833 0
-438 -834 0
-439 -835 0
-440 -836 0
-441 -837 0
-433 -1612 0
-434 -1613 0
-435 -1614 0
-436 -1615 0
-437 -1616 0
-438 -1617 0
-439 -1618 0
-440 -1619 0
-441 -1620 0
-433 -1765 0
-434 -1766 0
-435 -1767 0
-436 -1768 0
-437 -1769 0
-438 -1770 0
-439 -1771 0
-440 -1772 0
-441 -1773 0
-433 -1801 0
-434 -1802 0
-435 -1803 0
-436 -1804 0
-437 -1805 0
-438 -1806 0
-439 -1807 0
-440 -1808 0
-441 -1809 0
-433 -1819 0
-434 -1820 0
-435 -1821 0
-436 -1822 0
-437 -1823 0
-438 -1824 0
-439 -1825 0
-440 -1826 0
-441 -1827 0
-433 -2044 0
-434 -2045 0
-435 -2046 0
-436 -2047 0
-437 -2048 0
-438 -2049 0
-439 -2050 0
-440 -2051 0
-441 -2052 0
-433 -2161 0
-434 -2162 0
-435 -2163 0
-436 -2164 0
-437 -2165 0
-438 -2166 0
-439 -2167 0
-440 -2168 0
-441 -2169 0
-433 -2179 0
-434 -2180 0
-435 -2181 0
-436 -2182 0
-437 -2183 0
-438 -2184 0
-439 -2185 0
-440 -2186 0
-441 -2187 0
-433 -2233 0
-434 -2234 0
-435 -2235 0
-436 -2236 0
-437 -2237 0
-438 -2238 0
-439 -2239 0
-440 -2240 0
-441 -2241 0
-433 -2368 0
-434 -2369 0
-435 -2370 0
-436 -2371 0
-437 -2372 0
-438 -2373 0
-439 -2374 0
-440 -2375 0
-441 -2376 0
-433 -2377 0
-434 -2378 0
-435 -2379 0
-436 -2380 0
-437 -2381 0
-438 -2382 0
-439 -2383 0
-440 -2384 0
-441 -2385 0
-433 -2386 0
-434 -2387 0
-435 -2388 0
-436 -2389 0
-437 -2390 0
-438 -2391 0
-439 -2392 0
-440 -2393 0
-441 -2394 0
-433 -2521 0
-434 -2522 0
-435 -2523 0
-436 -2524 0
-437 -2525 0
-438 -2526 0
-439 -2527 0
-440 -2528 0
-441 -2529 0
-433 -2539 0
-434 -2540 0
-435 -2541 0
-436 -2542 0
-437 -2543 0
-438 -2544 0
-439 -2545 0
-440 -2546 0
-441 -2547 0
-433 -2611 0
-434 -2612 0
-435 -2613 0
-436 -2614 0
-437 -2615 0
-438 -2616 0
-439 -2617 0
-440 -2618 0
-441 -2619 0
-433 -2638 0
-434 -2639 0
-435 -2640 0
-436 -2641 0
-437 -2642 0
-438 -2643 0
-439 -2644 0
-440 -2645 0
-441 -2646 0
-433 -2647 0
-434 -2648 0
-435 -2649 0
-436 -2650 0
-437 -2651 0
-438 -2652 0
-439 -2653 0
-440 -2654 0
-441 -2655 0
-433 -2737 0
-434 -2738 0
-435 -2739 0
-436 -2740 0
-437 -2741 0
-438 -2742 0
-439 -2743 0
-440 -2744 0
-441 -2745 0
-433 -2782 0
-434 -2783 0
-435 -2784 0
-436 -2785 0
-437 -2786 0
-438 -2787 0
-439 -2788 0
-440 -2789 0
-441 -2790 0
-433 -2818 0
-434 -2819 0
-435 -2820 0
-436 -2821 0
-437 -2822 0
-438 -2823 0
-439 -2824 0
-440 -2825 0
-441 -2826 0
-433 -2881 0
-434 -2882 0
-435 -2883 0
-436 -2884 0
-437 -2885 0
-438 -2886 0
-439 -2887 0
-440 -2888 0
-441 -2889 0
-433 -2908 0
-434 -2909 0
-435 -2910 0
-436 -2911 0
-437 -2912 0
-438 -2913 0
-439 -2914 0
-440 -2915 0
-441 -2916 0
-442 -460 0
-443 -461 0
-444 -462 0
-445 -463 0
-446 -464 0
-447 -465 0
-448 -466 0
-449 -467 0
-450 -468 0
-442 -505 0
-443 -506 0
-444 -507 0
-445 -508 0
-446 -509 0
-447 -510 0
-448 -511 0
-449 -512 0
-450 -513 0
-442 -514 0
-443 -515 0
-444 -516 0
-445 -517 0
-446 -518 0
-447 -519 0
-448 -520 0
-449 -521 0
-450 -522 0
-442 -532 0
-443 -533 0
-444 -534 0
-445 -535 0
-446 -536 0
-447 -537 0
-448 -538 0
-449 -539 0
-450 -540 0
-442 -541 0
-443 -542 0
-444 -543 0
-445 -544 0
-446 -545 0
-447 -546 0
-448 -547 0
-449 -548 0
-450 -549 0
-442 -559 0
-443 -560 0
-444 -561 0
-445 -562 0
-446 -563 0
-447 -564 0
-448 -565 0
-449 -566 0
-450 -567 0
-442 -568 0
-443 -569 0
-444 -570 0
-445 -571 0
-446 -572 0
-447 -573 0
-448 -574 0
-449 -575 0
-450 -576 0
-442 -685 0
-443 -686 0
-444 -687 0
-445 -688 0
-446 -689 0
-447 -690 0
-448 -691 0
-449 -692 0
-450 -693 0
-442 -694 0
-443 -695 0
-444 -696 0
-445 -697 0
-446 -698 0
-447 -699 0
-448 -700 0
-449 -701 0
-450 -702 0
-442 -748 0
-443 -749 0
-444 -750 0
-445 -751 0
-446 -752 0
-447 -753 0
-448 -754 0
-449 -755 0
-450 -756 0
-442 -757 0
-443 -758 0
-444 -759 0
-445 -760 0
-446 -761 0
-447 -762 0
-448 -763 0
-449 -764 0
-450 -765 0
-442 -820 0
-443 -821 0
-444 -822 0
-445 -823 0
-446 -824 0
-447 -825 0
-448 -826 0
-449 -827 0
-450 -828 0
-442 -829 0
-443 -830 0
-444 -831 0
-445 -832 0
-446 -833 0
-447 -834 0
-448 -835 0
-449 -836 0
-450 -837 0
-442 -892 0
-443 -893 0
-444 -894 0
-445 -895 0
-446 -896 0
-447 -897 0
-448 -898 0
-449 -899 0
-450 -900 0
-442 -901 0
-443 -902 0
-444 -903 0
-445 -904 0
-446 -905 0
-447 -906 0
-448 -907 0
-449 -908 0
-450 -909 0
-442 -910 0
-443 -911 0
-444 -912 0
-445 -913 0
-446 -914 0
-447 -915 0
-448 -916 0
-449 -917 0
-450 -918 0
-442 -928 0
-443 -929 0
-444 -930 0
-445 -931 0
-446 -932 0
-447 -933 0
-448 -934 0
-449 -935 0
-450 -936 0
-442 -1153 0
-443 -1154 0
-444 -1155 0
-445 -1156 0
-446 -1157 0
-447 -1158 0
-448 -1159 0
-449 -1160 0
-450 -1161 0
-442 -1207 0
-443 -1208 0
-444 -1209 0
-445 -1210 0
-446 -1211 0
-447 -1212 0
-448 -1213 0
-449 -1214 0
-450 -1215 0
-442 -1360 0
-443 -1361 0
-444 -1362 0
-445 -1363 0
-446 -1364 0
-447 -1365 0
-448 -1366 0
-449 -1367 0
-450 -1368 0
-442 -1414 0
-443 -1415 0
-444 -1416 0
-445 -1417 0
-446 -1418 0
-447 -1419 0
-448 -1420 0
-449 -1421 0
-450 -1422 0
-442 -1468 0
-443 -1469 0
-444 -1470 0
-445 -1471 0
-446 -1472 0
-447 -1473 0
-448 -1474 0
-449 -1475 0
-450 -1476 0
-442 -1477 0
-443 -1478 0
-444 -1479 0
-445 -1480 0
-446 -1481 0
-447 -1482 0
-448 -1483 0
-449 -1484 0
-450 -1485 0
-442 -1522 0
-443 -1523 0
-444 -1524 0
-445 -1525 0
-446 -1526 0
-447 -1527 0
-448 -1528 0
-449 -1529 0
-450 -1530 0
-442 -1531 0
-443 -1532 0
-444 -1533 0
-445 -1534 0
-446 -1535 0
-447 -1536 0
-448 -1537 0
-449 -1538 0
-450 -1539 0
-442 -1594 0
-443 -1595 0
-444 -1596 0
-445 -1597 0
-446 -1598 0
-447 -1599 0
-448 -1600 0
-449 -1601 0
-450 -1602 0
-442 -1603 0
-443 -1604 0
-444 -1605 0
-445 -1606 0
-446 -1607 0
-447 -1608 0
-448 -1609 0
-449 -1610 0
-450 -1611 0
-442 -1612 0
-443 -1613 0
-444 -1614 0
-445 -1615 0
-446 -1616 0
-447 -1617 0
-448 -1618 0
-449 -1619 0
-450 -1620 0
-442 -1639 0
-443 -1640 0
-444 -1641 0
-445 -1642 0
-446 -1643 0
-447 -1644 0
-448 -1645 0
-449 -1646 0
-450 -1647 0
-442 -1648 0
-443 -1649 0
-444 -1650 0
-445 -1651 0
-446 -1652 0
-447 -1653 0
-448 -1654 0
-449 -1655 0
-450 -1656 0
-442 -1684 0
-443 -1685 0
-444 -1686 0
-445 -1687 0
-446 -1688 0
-447 -1689 0
-448 -1690 0
-449 -1691 0
-450 -1692 0
-442 -1693 0
-443 -1694 0
-444 -1695 0
-445 -1696 0
-446 -1697 0
-447 -1698 0
-448 -1699 0
-449 -1700 0
-450 -1701 0
-442 -1756 0
-443 -1757 0
-444 -1758 0
-445 -1759 0
-446 -1760 0
-447 -1761 0
-448 -1762 0
-449 -1763 0
-450 -1764 0
-442 -1765 0
-443 -1766 0
-444 -1767 0
-445 -1768 0
-446 -1769 0
-447 -1770 0
-448 -1771 0
-449 -1772 0
-450 -1773 0
-442 -1855 0
-443 -1856 0
-444 -1857 0
-445 -1858 0
-446 -1859 0
-447 -1860 0
-448 -1861 0
-449 -1862 0
-450 -1863 0
-442 -1945 0
-443 -1946 0
-444 -1947 0
-445 -1948 0
-446 -1949 0
-447 -1950 0
-448 -1951 0
-449 -1952 0
-450 -1953 0
-442 -2017 0
-443 -2018 0
-444 -2019 0
-445 -2020 0
-446 -2021 0
-447 -2022 0
-448 -2023 0
-449 -2024 0
-450 -2025 0
-442 -2026 0
-443 -2027 0
-444 -2028 0
-445 -2029 0
-446 -2030 0
-447 -2031 0
-448 -2032 0
-449 -2033 0
-450 -2034 0
-442 -2071 0
-443 -2072 0
-444 -2073 0
-445 -2074 0
-446 -2075 0
-447 -2076 0
-448 -2077 0
-449 -2078 0
-450 -2079 0
-442 -2152 0
-443 -2153 0
-444 -2154 0
-445 -2155 0
-446 -2156 0
-447 -2157 0
-448 -2158 0
-449 -2159 0
-450 -2160 0
-442 -2224 0
-443 -2225 0
-444 -2226 0
-445 -2227 0
-446 -2228 0
-447 -2229 0
-448 -2230 0
-449 -2231 0
-450 -2232 0
-442 -2233 0
-443 -2234 0
-444 -2235 0
-445 -2236 0
-446 -2237 0
-447 -2238 0
-448 -2239 0
-449 -2240 0
-450 -2241 0
-442 -2269 0
-443 -2270 0
-444 -2271 0
-445 -2272 0
-446 -2273 0
-447 -2274 0
-448 -2275 0
-449 -2276 0
-450 -2277 0
-442 -2296 0
-443 -2297 0
-444 -2298 0
-445 -2299 0
-446 -2300 0
-447 -2301 0
-448 -2302 0
-449 -2303 0
-450 -2304 0
-442 -2323 0
-443 -2324 0
-444 -2325 0
-445 -2326 0
-446 -2327 0
-447 -2328 0
-448 -2329 0
-449 -2330 0
-450 -2331 0
-442 -2341 0
-443 -2342 0
-444 -2343 0
-445 -2344 0
-446 -2345 0
-447 -2346 0
-448 -2347 0
-449 -2348 0
-450 -2349 0
-442 -2359 0
-443 -2360 0
-444 -2361 0
-445 -2362 0
-446 -2363 0
-447 -2364 0
-448 -2365 0
-449 -2366 0
-450 -2367 0
-442 -2386 0
-443 -2387 0
-444 -2388 0
-445 -2389 0
-446 -2390 0
-447 -2391 0
-448 -2392 0
-449 -2393 0
-450 -2394 0
-442 -2395 0
-443 -2396 0
-444 -2397 0
-445 -2398 0
-446 -2399 0
-447 -2400 0
-448 -2401 0
-449 -2402 0
-450 -2403 0
-442 -2404 0
-443 -2405 0
-444 -2406 0
-445 -2407 0
-446 -2408 0
-447 -2409 0
-448 -2410 0
-449 -2411 0
-450 -2412 0
-442 -2440 0
-443 -2441 0
-444 -2442 0
-445 -2443 0
-446 -2444 0
-447 -2445 0
-448 -2446 0
-449 -2447 0
-450 -2448 0
-442 -2566 0
-443 -2567 0
-444 -2568 0
-445 -2569 0
-446 -2570 0
-447 -2571 0
-448 -2572 0
-449 -2573 0
-450 -2574 0
-442 -2620 0
-443 -2621 0
-444 -2622 0
-445 -2623 0
-446 -2624 0
-447 -2625 0
-448 -2626 0
-449 -2627 0
-450 -2628 0
-442 -2656 0
-443 -2657 0
-444 -2658 0
-445 -2659 0
-446 -2660 0
-447 -2661 0
-448 -2662 0
-449 -2663 0
-450 -2664 0
-442 -2665 0
-443 -2666 0
-444 -2667 0
-445 -2668 0
-446 -2669 0
-447 -2670 0
-448 -2671 0
-449 -2672 0
-450 -2673 0
-442 -2809 0
-443 -2810 0
-444 -2811 0
-445 -2812 0
-446 -2813 0
-447 -2814 0
-448 -2815 0
-449 -2816 0
-450 -2817 0
-442 -2872 0
-443 -2873 0
-444 -2874 0
-445 -2875 0
-446 -2876 0
-447 -2877 0
-448 -2878 0
-449 -2879 0
-450 -2880 0
-442 -2917 0
-443 -2918 0
-444 -2919 0
-445 -2920 0
-446 -2921 0
-447 -2922 0
-448 -2923 0
-449 -2924 0
-450 -2925 0
-442 -2935 0
-443 -2936 0
-444 -2937 0
-445 -2938 0
-446 -2939 0
-447 -2940 0
-448 -2941 0
-449 -2942 0
-450 -2943 0
-442 -2944 0
-443 -2945 0
-444 -2946 0
-445 -2947 0
-446 -2948 0
-447 -2949 0
-448 -2950 0
-449 -2951 0
-450 -2952 0
-451 -487 0
-452 -488 0
-453 -489 0
-454 -490 0
-455 -491 0
-456 -492 0
-457 -493 0
-458 -494 0
-459 -495 0
-451 -496 0
-452 -497 0
-453 -498 0
-454 -499 0
-455 -500 0
-456 -501 0
-457 -502 0
-458 -503 0
-459 -504 0
-451 -523 0
-452 -524 0
-453 -525 0
-454 -526 0
-455 -527 0
-456 -528 0
-457 -529 0
-458 -530 0
-459 -531 0
-451 -559 0
-452 -560 0
-453 -561 0
-454 -562 0
-455 -563 0
-456 -564 0
-457 -565 0
-458 -566 0
-459 -567 0
-451 -568 0
-452 -569 0
-453 -570 0
-454 -571 0
-455 -572 0
-456 -573 0
-457 -574 0
-458 -575 0
-459 -576 0
-451 -577 0
-452 -578 0
-453 -579 0
-454 -580 0
-455 -581 0
-456 -582 0
-457 -583 0
-458 -584 0
-459 -585 0
-451 -631 0
-452 -632 0
-453 -633 0
-454 -634 0
-455 -635 0
-456 -636 0
-457 -637 0
-458 -638 0
-459 -639 0
-451 -640 0
-452 -641 0
-453 -642 0
-454 -643 0
-455 -644 0
-456 -645 0
-457 -646 0
-458 -647 0
-459 -648 0
-451 -730 0
-452 -731 0
-453 -732 0
-454 -733 0
-455 -734 0
-456 -735 0
-457 -736 0
-458 -737 0
-459 -738 0
-451 -739 0
-452 -740 0
-453 -741 0
-454 -742 0
-455 -743 0
-456 -744 0
-457 -745 0
-458 -746 0
-459 -747 0
-451 -793 0
-452 -794 0
-453 -795 0
-454 -796 0
-455 -797 0
-456 -798 0
-457 -799 0
-458 -800 0
-459 -801 0
-451 -856 0
-452 -857 0
-453 -858 0
-454 -859 0
-455 -860 0
-456 -861 0
-457 -862 0
-458 -863 0
-459 -864 0
-451 -865 0
-452 -866 0
-453 -867 0
-454 -868 0
-455 -869 0
-456 -870 0
-457 -871 0
-458 -872 0
-459 -873 0
-451 -1837 0
-452 -1838 0
-453 -1839 0
-454 -1840 0
-455 -1841 0
-456 -1842 0
-457 -1843 0
-458 -1844 0
-459 -1845 0
-451 -1963 0
-452 -1964 0
-453 -1965 0
-454 -1966 0
-455 -1967 0
-456 -1968 0
-457 -1969 0
-458 -1970 0
-459 -1971 0
-451 -1999 0
-452 -2000 0
-453 -2001 0
-454 -2002 0
-455 -2003 0
-456 -2004 0
-457 -2005 0
-458 -2006 0
-459 -2007 0
-451 -2035 0
-452 -2036 0
-453 -2037 0
-454 -2038 0
-455 -2039 0
-456 -2040 0
-457 -2041 0
-458 -2042 0
-459 -2043 0
-451 -2053 0
-452 -2054 0
-453 -2055 0
-454 -2056 0
-455 -2057 0
-456 -2058 0
-457 -2059 0
-458 -2060 0
-459 -2061 0
-451 -2170 0
-452 -2171 0
-453 -2172 0
-454 -2173 0
-455 -2174 0
-456 -2175 0
-457 -2176 0
-458 -2177 0
-459 -2178 0
-451 -2206 0
-452 -2207 0
-453 -2208 0
-454 -2209 0
-455 -2210 0
-456 -2211 0
-457 -2212 0
-458 -2213 0
-459 -2214 0
-451 -2242 0
-452 -2243 0
-453 -2244 0
-454 -2245 0
-455 -2246 0
-456 -2247 0
-457 -2248 0
-458 -2249 0
-459 -2250 0
-451 -2422 0
-452 -2423 0
-453 -2424 0
-454 -2425 0
-455 -2426 0
-456 -2427 0
-457 -2428 0
-458 -2429 0
-459 -2430 0
-451 -2431 0
-452 -2432 0
-453 -2433 0
-454 -2434 0
-455 -2435 0
-456 -2436 0
-457 -2437 0
-458 -2438 0
-459 -2439 0
-451 -2440 0
-452 -2441 0
-453 -2442 0
-454 -2443 0
-455 -2444 0
-456 -2445 0
-457 -2446 0
-458 -2447 0
-459 -2448 0
-451 -2494 0
-452 -2495 0
-453 -2496 0
-454 -2497 0
-455 -2498 0
-456 -2499 0
-457 -2500 0
-458 -2501 0
-459 -2502 0
-451 -2557 0
-452 -2558 0
-453 -2559 0
-454 -2560 0
-455 -2561 0
-456 -2562 0
-457 -2563 0
-458 -2564 0
-459 -2565 0
-451 -2611 0
-452 -2612 0
-453 -2613 0
-454 -2614 0
-455 -2615 0
-456 -2616 0
-457 -2617 0
-458 -2618 0
-459 -2619 0
-451 -2656 0
-452 -2657 0
-453 -2658 0
-454 -2659 0
-455 -2660 0
-456 -2661 0
-457 -2662 0
-458 -2663 0
-459 -2664 0
-451 -2665 0
-452 -2666 0
-453 -2667 0
-454 -2668 0
-455 -2669 0
-456 -2670 0
-457 -2671 0
-458 -2672 0
-459 -2673 0
-451 -2791 0
-452 -2792 0
-453 -2793 0
-454 -2794 0
-455 -2795 0
-456 -2796 0
-457 -2797 0
-458 -2798 0
-459 -2799 0
-451 -2836 0
-452 -2837 0
-453 -2838 0
-454 -2839 0
-455 -2840 0
-456 -2841 0
-457 -2842 0
-458 -2843 0
-459 -2844 0
-451 -2845 0
-452 -2846 0
-453 -2847 0
-454 -2848 0
-455 -2849 0
-456 -2850 0
-457 -2851 0
-458 -2852 0
-459 -2853 0
-451 -2863 0
-452 -2864 0
-453 -2865 0
-454 -2866 0
-455 -2867 0
-456 -2868 0
-457 -2869 0
-458 -2870 0
-459 -2871 0
-451 -2917 0
-452 -2918 0
-453 -2919 0
-454 -2920 0
-455 -2921 0
-456 -2922 0
-457 -2923 0
-458 -2924 0
-459 -2925 0
-460 -469 0
-461 -470 0
-462 -471 0
-463 -472 0
-464 -473 0
-465 -474 0
-466 -475 0
-467 -476 0
-468 -477 0
-460 -478 0
-461 -479 0
-462 -480 0
-463 -481 0
-464 -482 0
-465 -483 0
-466 -484 0
-467 -485 0
-468 -486 0
-460 -487 0
-461 -488 0
-462 -489 0
-463 -490 0
-464 -491 0
-465 -492 0
-466 -493 0
-467 -494 0
-468 -495 0
-460 -496 0
-461 -497 0
-462 -498 0
-463 -499 0
-464 -500 0
-465 -501 0
-466 -502 0
-467 -503 0
-468 -504 0
-460 -505 0
-461 -506 0
-462 -507 0
-463 -508 0
-464 -509 0
-465 -510 0
-466 -511 0
-467 -512 0
-468 -513 0
-460 -514 0
-461 -515 0
-462 -516 0
-463 -517 0
-464 -518 0
-465 -519 0
-466 -520 0
-467 -521 0
-468 -522 0
-460 -523 0
-461 -524 0
-462 -525 0
-463 -526 0
-464 -527 0
-465 -528 0
-466 -529 0
-467 -530 0
-468 -531 0
-460 -532 0
-461 -533 0
-462 -534 0
-463 -535 0
-464 -536 0
-465 -537 0
-466 -538 0
-467 -539 0
-468 -540 0
-460 -541 0
-461 -542 0
-462 -543 0
-463 -544 0
-464 -545 0
-465 -546 0
-466 -547 0
-467 -548 0
-468 -549 0
-460 -577 0
-461 -578 0
-462 -579 0
-463 -580 0
-464 -581 0
-465 -582 0
-466 -583 0
-467 -584 0
-468 -585 0
-460 -1072 0
-461 -1073 0
-462 -1074 0
-463 -1075 0
-464 -1076 0
-465 -1077 0
-466 -1078 0
-467 -1079 0
-468 -1080 0
-460 -1144 0
-461 -1145 0
-462 -1146 0
-463 -1147 0
-464 -1148 0
-465 -1149 0
-466 -1150 0
-467 -1151 0
-468 -1152 0
-460 -1234 0
-461 -1235 0
-462 -1236 0
-463 -1237 0
-464 -1238 0
-465 -1239 0
-466 -1240 0
-467 -1241 0
-468 -1242 0
-460 -1243 0
-461 -1244 0
-462 -1245 0
-463 -1246 0
-464 -1247 0
-465 -1248 0
-466 -1249 0
-467 -1250 0
-468 -1251 0
-460 -1288 0
-461 -1289 0
-462 -1290 0
-463 -1291 0
-464 -1292 0
-465 -1293 0
-466 -1294 0
-467 -1295 0
-468 -1296 0
-460 -1432 0
-461 -1433 0
-462 -1434 0
-463 -1435 0
-464 -1436 0
-465 -1437 0
-466 -1438 0
-467 -1439 0
-468 -1440 0
-460 -1459 0
-461 -1460 0
-462 -1461 0
-463 -1462 0
-464 -1463 0
-465 -1464 0
-466 -1465 0
-467 -1466 0
-468 -1467 0
-460 -1729 0
-461 -1730 0
-462 -1731 0
-463 -1732 0
-464 -1733 0
-465 -1734 0
-466 -1735 0
-467 -1736 0
-468 -1737 0
-460 -1738 0
-461 -1739 0
-462 -1740 0
-463 -1741 0
-464 -1742 0
-465 -1743 0
-466 -1744 0
-467 -1745 0
-468 -1746 0
-460 -1747 0
-461 -1748 0
-462 -1749 0
-463 -1750 0
-464 -1751 0
-465 -1752 0
-466 -1753 0
-467 -1754 0
-468 -1755 0
-460 -1945 0
-461 -1946 0
-462 -1947 0
-463 -1948 0
-464 -1949 0
-465 -1950 0
-466 -1951 0
-467 -1952 0
-468 -1953 0
-460 -1990 0
-461 -1991 0
-462 -1992 0
-463 -1993 0
-464 -1994 0
-465 -1995 0
-466 -1996 0
-467 -1997 0
-468 -1998 0
-460 -2017 0
-461 -2018 0
-462 -2019 0
-463 -2020 0
-464 -2021 0
-465 -2022 0
-466 -2023 0
-467 -2024 0
-468 -2025 0
-460 -2152 0
-461 -2153 0
-462 -2154 0
-463 -2155 0
-464 -2156 0
-465 -2157 0
-466 -2158 0
-467 -2159 0
-468 -2160 0
-460 -2197 0
-461 -2198 0
-462 -2199 0
-463 -2200 0
-464 -2201 0
-465 -2202 0
-466 -2203 0
-467 -2204 0
-468 -2205 0
-460 -2224 0
-461 -2225 0
-462 -2226 0
-463 -2227 0
-464 -2228 0
-465 -2229 0
-466 -2230 0
-467 -2231 0
-468 -2232 0
-460 -2467 0
-461 -2468 0
-462 -2469 0
-463 -2470 0
-464 -2471 0
-465 -2472 0
-466 -2473 0
-467 -2474 0
-468 -2475 0
-460 -2476 0
-461 -2477 0
-462 -2478 0
-463 -2479 0
-464 -2480 0
-465 -2481 0
-466 -2482 0
-467 -2483 0
-468 -2484 0
-460 -2512 0
-461 -2513 0
-462 -2514 0
-463 -2515 0
-464 -2516 0
-465 -2517 0
-466 -2518 0
-467 -2519 0
-468 -2520 0
-460 -2755 0
-461 -2756 0
-462 -2757 0
-463 -2758 0
-464 -2759 0
-465 -2760 0
-466 -2761 0
-467 -2762 0
-468 -2763 0
-460 -2782 0
-461 -2783 0
-462 -2784 0
-463 -2785 0
-464 -2786 0
-465 -2787 0
-466 -2788 0
-467 -2789 0
-468 -2790 0
-460 -2800 0
-461 -2801 0
-462 -2802 0
-463 -2803 0
-464 -2804 0
-465 -2805 0
-466 -2806 0
-467 -2807 0
-468 -2808 0
-460 -2818 0
-461 -2819 0
-462 -2820 0
-463 -2821 0
-464 -2822 0
-465 -2823 0
-466 -2824 0
-467 -2825 0
-468 -2826 0
-460 -2836 0
-461 -2837 0
-462 -2838 0
-463 -2839 0
-464 -2840 0
-465 -2841 0
-466 -2842 0
-467 -2843 0
-468 -2844 0
-460 -2863 0
-461 -2864 0
-462 -2865 0
-463 -2866 0
-464 -2867 0
-465 -2868 0
-466 -2869 0
-467 -2870 0
-468 -2871 0
-460 -2926 0
-461 -2927 0
-462 -2928 0
-463 -2929 0
-464 -2930 0
-465 -2931 0
-466 -2932 0
-467 -2933 0
-468 -2934 0
-460 -2935 0
-461 -2936 0
-462 -2937 0
-463 -2938 0
-464 -2939 0
-465 -2940 0
-466 -2941 0
-467 -2942 0
-468 -2943 0
-460 -2944 0
-461 -2945 0
-462 -2946 0
-463 -2947 0
-464 -2948 0
-465 -2949 0
-466 -2950 0
-467 -2951 0
-468 -2952 0
-469 -514 0
-470 -515 0
-471 -516 0
-472 -517 0
-473 -518 0
-474 -519 0
-475 -520 0
-476 -521 0
-477 -522 0
-469 -532 0
-470 -533 0
-471 -534 0
-472 -535 0
-473 -536 0
-474 -537 0
-475 -538 0
-476 -539 0
-477 -540 0
-469 -550 0
-470 -551 0
-471 -552 0
-472 -553 0
-473 -554 0
-474 -555 0
-475 -556 0
-476 -557 0
-477 -558 0
-469 -577 0
-470 -578 0
-471 -579 0
-472 -580 0
-473 -581 0
-474 -582 0
-475 -583 0
-476 -584 0
-477 -585 0
-469 -748 0
-470 -749 0
-471 -750 0
-472 -751 0
-473 -752 0
-474 -753 0
-475 -754 0
-476 -755 0
-477 -756 0
-469 -829 0
-470 -830 0
-471 -831 0
-472 -832 0
-473 -833 0
-474 -834 0
-475 -835 0
-476 -836 0
-477 -837 0
-469 -892 0
-470 -893 0
-471 -894 0
-472 -895 0
-473 -896 0
-474 -897 0
-475 -898 0
-476 -899 0
-477 -900 0
-469 -910 0
-470 -911 0
-471 -912 0
-472 -913 0
-473 -914 0
-474 -915 0
-475 -916 0
-476 -917 0
-477 -918 0
-469 -937 0
-470 -938 0
-471 -939 0
-472 -940 0
-473 -941 0
-474 -942 0
-475 -943 0
-476 -944 0
-477 -945 0
-469 -946 0
-470 -947 0
-471 -948 0
-472 -949 0
-473 -950 0
-474 -951 0
-475 -952 0
-476 -953 0
-477 -954 0
-469 -973 0
-470 -974 0
-471 -975 0
-472 -976 0
-473 -977 0
-474 -978 0
-475 -979 0
-476 -980 0
-477 -981 0
-469 -1099 0
-470 -1100 0
-471 -1101 0
-472 -1102 0
-473 -1103 0
-474 -1104 0
-475 -1105 0
-476 -1106 0
-477 -1107 0
-469 -1180 0
-470 -1181 0
-471 -1182 0
-472 -1183 0
-473 -1184 0
-474 -1185 0
-475 -1186 0
-476 -1187 0
-477 -1188 0
-469 -1216 0
-470 -1217 0
-471 -1218 0
-472 -1219 0
-473 -1220 0
-474 -1221 0
-475 -1222 0
-476 -1223 0
-477 -1224 0
-469 -1234 0
-470 -1235 0
-471 -1236 0
-472 -1237 0
-473 -1238 0
-474 -1239 0
-475 -1240 0
-476 -1241 0
-477 -1242 0
-469 -1306 0
-470 -1307 0
-471 -1308 0
-472 -1309 0
-473 -1310 0
-474 -1311 0
-475 -1312 0
-476 -1313 0
-477 -1314 0
-469 -1324 0
-470 -1325 0
-471 -1326 0
-472 -1327 0
-473 -1328 0
-474 -1329 0
-475 -1330 0
-476 -1331 0
-477 -1332 0
-469 -1342 0
-470 -1343 0
-471 -1344 0
-472 -1345 0
-473 -1346 0
-474 -1347 0
-475 -1348 0
-476 -1349 0
-477 -1350 0
-469 -1351 0
-470 -1352 0
-471 -1353 0
-472 -1354 0
-473 -1355 0
-474 -1356 0
-475 -1357 0
-476 -1358 0
-477 -1359 0
-469 -1414 0
-470 -1415 0
-471 -1416 0
-472 -1417 0
-473 -1418 0
-474 -1419 0
-475 -1420 0
-476 -1421 0
-477 -1422 0
-469 -1495 0
-470 -1496 0
-471 -1497 0
-472 -1498 0
-473 -1499 0
-474 -1500 0
-475 -1501 0
-476 -1502 0
-477 -1503 0
-469 -1675 0
-470 -1676 0
-471 -1677 0
-472 -1678 0
-473 -1679 0
-474 -1680 0
-475 -1681 0
-476 -1682 0
-477 -1683 0
-469 -1693 0
-470 -1694 0
-471 -1695 0
-472 -1696 0
-473 -1697 0
-474 -1698 0
-475 -1699 0
-476 -1700 0
-477 -1701 0
-469 -1711 0
-470 -1712 0
-471 -1713 0
-472 -1714 0
-473 -1715 0
-474 -1716 0
-475 -1717 0
-476 -1718 0
-477 -1719 0
-469 -1738 0
-470 -1739 0
-471 -1740 0
-472 -1741 0
-473 -1742 0
-474 -1743 0
-475 -1744 0
-476 -1745 0
-477 -1746 0
-469 -1774 0
-470 -1775 0
-471 -1776 0
-472 -1777 0
-473 -1778 0
-474 -1779 0
-475 -1780 0
-476 -1781 0
-477 -1782 0
-469 -1792 0
-470 -1793 0
-471 -1794 0
-472 -1795 0
-473 -1796 0
-474 -1797 0
-475 -1798 0
-476 -1799 0
-477 -1800 0
-469 -1900 0
-470 -1901 0
-471 -1902 0
-472 -1903 0
-473 -1904 0
-474 -1905 0
-475 -1906 0
-476 -1907 0
-477 -1908 0
-469 -1999 0
-470 -2000 0
-471 -2001 0
-472 -2002 0
-473 -2003 0
-474 -2004 0
-475 -2005 0
-476 -2006 0
-477 -2007 0
-469 -2170 0
-470 -2171 0
-471 -2172 0
-472 -2173 0
-473 -2174 0
-474 -2175 0
-475 -2176 0
-476 -2177 0
-477 -2178 0
-469 -2278 0
-470 -2279 0
-471 -2280 0
-472 -2281 0
-473 -2282 0
-474 -2283 0
-475 -2284 0
-476 -2285 0
-477 -2286 0
-469 -2314 0
-470 -2315 0
-471 -2316 0
-472 -2317 0
-473 -2318 0
-474 -2319 0
-475 -2320 0
-476 -2321 0
-477 -2322 0
-469 -2359 0
-470 -2360 0
-471 -2361 0
-472 -2362 0
-473 -2363 0
-474 -2364 0
-475 -2365 0
-476 -2366 0
-477 -2367 0
-469 -2368 0
-470 -2369 0
-471 -2370 0
-472 -2371 0
-473 -2372 0
-474 -2373 0
-475 -2374 0
-476 -2375 0
-477 -2376 0
-469 -2521 0
-470 -2522 0
-471 -2523 0
-472 -2524 0
-473 -2525 0
-474 -2526 0
-475 -2527 0
-476 -2528 0
-477 -2529 0
-469 -2638 0
-470 -2639 0
-471 -2640 0
-472 -2641 0
-473 -2642 0
-474 -2643 0
-475 -2644 0
-476 -2645 0
-477 -2646 0
-469 -2683 0
-470 -2684 0
-471 -2685 0
-472 -2686 0
-473 -2687 0
-474 -2688 0
-475 -2689 0
-476 -2690 0
-477 -2691 0
-469 -2719 0
-470 -2720 0
-471 -2721 0
-472 -2722 0
-473 -2723 0
-474 -2724 0
-475 -2725 0
-476 -2726 0
-477 -2727 0
-469 -2737 0
-470 -2738 0
-471 -2739 0
-472 -2740 0
-473 -2741 0
-474 -2742 0
-475 -2743 0
-476 -2744 0
-477 -2745 0
-469 -2746 0
-470 -2747 0
-471 -2748 0
-472 -2749 0
-473 -2750 0
-474 -2751 0
-475 -2752 0
-476 -2753 0
-477 -2754 0
-469 -2755 0
-470 -2756 0
-471 -2757 0
-472 -2758 0
-473 -2759 0
-474 -2760 0
-475 -2761 0
-476 -2762 0
-477 -2763 0
-469 -2818 0
-470 -2819 0
-471 -2820 0
-472 -2821 0
-473 -2822 0
-474 -2823 0
-475 -2824 0
-476 -2825 0
-477 -2826 0
-469 -2872 0
-470 -2873 0
-471 -2874 0
-472 -2875 0
-473 -2876 0
-474 -2877 0
-475 -2878 0
-476 -2879 0
-477 -2880 0
-469 -2926 0
-470 -2927 0
-471 -2928 0
-472 -2929 0
-473 -2930 0
-474 -2931 0
-475 -2932 0
-476 -2933 0
-477 -2934 0
-478 -505 0
-479 -506 0
-480 -507 0
-481 -508 0
-482 -509 0
-483 -510 0
-484 -511 0
-485 -512 0
-486 -513 0
-478 -541 0
-479 -542 0
-480 -543 0
-481 -544 0
-482 -545 0
-483 -546 0
-484 -547 0
-485 -548 0
-486 -549 0
-478 -550 0
-479 -551 0
-480 -552 0
-481 -553 0
-482 -554 0
-483 -555 0
-484 -556 0
-485 -557 0
-486 -558 0
-478 -577 0
-479 -578 0
-480 -579 0
-481 -580 0
-482 -581 0
-483 -582 0
-484 -583 0
-485 -584 0
-486 -585 0
-478 -757 0
-479 -758 0
-480 -759 0
-481 -760 0
-482 -761 0
-483 -762 0
-484 -763 0
-485 -764 0
-486 -765 0
-478 -820 0
-479 -821 0
-480 -822 0
-481 -823 0
-482 -824 0
-483 -825 0
-484 -826 0
-485 -827 0
-486 -828 0
-478 -901 0
-479 -902 0
-480 -903 0
-481 -904 0
-482 -905 0
-483 -906 0
-484 -907 0
-485 -908 0
-486 -909 0
-478 -919 0
-479 -920 0
-480 -921 0
-481 -922 0
-482 -923 0
-483 -924 0
-484 -925 0
-485 -926 0
-486 -927 0
-478 -928 0
-479 -929 0
-480 -930 0
-481 -931 0
-482 -932 0
-483 -933 0
-484 -934 0
-485 -935 0
-486 -936 0
-478 -955 0
-479 -956 0
-480 -957 0
-481 -958 0
-482 -959 0
-483 -960 0
-484 -961 0
-485 -962 0
-486 -963 0
-478 -973 0
-479 -974 0
-480 -975 0
-481 -976 0
-482 -977 0
-483 -978 0
-484 -979 0
-485 -980 0
-486 -981 0
-478 -1090 0
-479 -1091 0
-480 -1092 0
-481 -1093 0
-482 -1094 0
-483 -1095 0
-484 -1096 0
-485 -1097 0
-486 -1098 0
-478 -1108 0
-479 -1109 0
-480 -1110 0
-481 -1111 0
-482 -1112 0
-483 -1113 0
-484 -1114 0
-485 -1115 0
-486 -1116 0
-478 -1126 0
-479 -1127 0
-480 -1128 0
-481 -1129 0
-482 -1130 0
-483 -1131 0
-484 -1132 0
-485 -1133 0
-486 -1134 0
-478 -1135 0
-479 -1136 0
-480 -1137 0
-481 -1138 0
-482 -1139 0
-483 -1140 0
-484 -1141 0
-485 -1142 0
-486 -1143 0
-478 -1207 0
-479 -1208 0
-480 -1209 0
-481 -1210 0
-482 -1211 0
-483 -1212 0
-484 -1213 0
-485 -1214 0
-486 -1215 0
-478 -1216 0
-479 -1217 0
-480 -1218 0
-481 -1219 0
-482 -1220 0
-483 -1221 0
-484 -1222 0
-485 -1223 0
-486 -1224 0
-478 -1234 0
-479 -1235 0
-480 -1236 0
-481 -1237 0
-482 -1238 0
-483 -1239 0
-484 -1240 0
-485 -1241 0
-486 -1242 0
-478 -1315 0
-479 -1316 0
-480 -1317 0
-481 -1318 0
-482 -1319 0
-483 -1320 0
-484 -1321 0
-485 -1322 0
-486 -1323 0
-478 -1387 0
-479 -1388 0
-480 -1389 0
-481 -1390 0
-482 -1391 0
-483 -1392 0
-484 -1393 0
-485 -1394 0
-486 -1395 0
-478 -1486 0
-479 -1487 0
-480 -1488 0
-481 -1489 0
-482 -1490 0
-483 -1491 0
-484 -1492 0
-485 -1493 0
-486 -1494 0
-478 -1675 0
-479 -1676 0
-480 -1677 0
-481 -1678 0
-482 -1679 0
-483 -1680 0
-484 -1681 0
-485 -1682 0
-486 -1683 0
-478 -1684 0
-479 -1685 0
-480 -1686 0
-481 -1687 0
-482 -1688 0
-483 -1689 0
-484 -1690 0
-485 -1691 0
-486 -1692 0
-478 -1720 0
-479 -1721 0
-480 -1722 0
-481 -1723 0
-482 -1724 0
-483 -1725 0
-484 -1726 0
-485 -1727 0
-486 -1728 0
-478 -1747 0
-479 -1748 0
-480 -1749 0
-481 -1750 0
-482 -1751 0
-483 -1752 0
-484 -1753 0
-485 -1754 0
-486 -1755 0
-478 -1783 0
-479 -1784 0
-480 -1785 0
-481 -1786 0
-482 -1787 0
-483 -1788 0
-484 -1789 0
-485 -1790 0
-486 -1791 0
-478 -1801 0
-479 -1802 0
-480 -1803 0
-481 -1804 0
-482 -1805 0
-483 -1806 0
-484 -1807 0
-485 -1808 0
-486 -1809 0
-478 -1963 0
-479 -1964 0
-480 -1965 0
-481 -1966 0
-482 -1967 0
-483 -1968 0
-484 -1969 0
-485 -1970 0
-486 -1971 0
-478 -2116 0
-479 -2117 0
-480 -2118 0
-481 -2119 0
-482 -2120 0
-483 -2121 0
-484 -2122 0
-485 -2123 0
-486 -2124 0
-478 -2206 0
-479 -2207 0
-480 -2208 0
-481 -2209 0
-482 -2210 0
-483 -2211 0
-484 -2212 0
-485 -2213 0
-486 -2214 0
-478 -2278 0
-479 -2279 0
-480 -2280 0
-481 -2281 0
-482 -2282 0
-483 -2283 0
-484 -2284 0
-485 -2285 0
-486 -2286 0
-478 -2296 0
-479 -2297 0
-480 -2298 0
-481 -2299 0
-482 -2300 0
-483 -2301 0
-484 -2302 0
-485 -2303 0
-486 -2304 0
-478 -2305 0
-479 -2306 0
-480 -2307 0
-481 -2308 0
-482 -2309 0
-483 -2310 0
-484 -2311 0
-485 -2312 0
-486 -2313 0
-478 -2377 0
-479 -2378 0
-480 -2379 0
-481 -2380 0
-482 -2381 0
-483 -2382 0
-484 -2383 0
-485 -2384 0
-486 -2385 0
-478 -2530 0
-479 -2531 0
-480 -2532 0
-481 -2533 0
-482 -2534 0
-483 -2535 0
-484 -2536 0
-485 -2537 0
-486 -2538 0
-478 -2593 0
-479 -2594 0
-480 -2595 0
-481 -2596 0
-482 -2597 0
-483 -2598 0
-484 -2599 0
-485 -2600 0
-486 -2601 0
-478 -2692 0
-479 -2693 0
-480 -2694 0
-481 -2695 0
-482 -2696 0
-483 -2697 0
-484 -2698 0
-485 -2699 0
-486 -2700 0
-478 -2701 0
-479 -2702 0
-480 -2703 0
-481 -2704 0
-482 -2705 0
-483 -2706 0
-484 -2707 0
-485 -2708 0
-486 -2709 0
-478 -2764 0
-479 -2765 0
-480 -2766 0
-481 -2767 0
-482 -2768 0
-483 -2769 0
-484 -2770 0
-485 -2771 0
-486 -2772 0
-478 -2773 0
-479 -2774 0
-480 -2775 0
-481 -2776 0
-482 -2777 0
-483 -2778 0
-484 -2779 0
-485 -2780 0
-486 -2781 0
-478 -2782 0
-479 -2783 0
-480 -2784 0
-481 -2785 0
-482 -2786 0
-483 -2787 0
-484 -2788 0
-485 -2789 0
-486 -2790 0
-478 -2800 0
-479 -2801 0
-480 -2802 0
-481 -2803 0
-482 -2804 0
-483 -2805 0
-484 -2806 0
-485 -2807 0
-486 -2808 0
-478 -2809 0
-479 -2810 0
-480 -2811 0
-481 -2812 0
-482 -2813 0
-483 -2814 0
-484 -2815 0
-485 -2816 0
-486 -2817 0
-478 -2926 0
-479 -2927 0
-480 -2928 0
-481 -2929 0
-482 -2930 0
-483 -2931 0
-484 -2932 0
-485 -2933 0
-486 -2934 0
-487 -496 0
-488 -497 0
-489 -498 0
-490 -499 0
-491 -500 0
-492 -501 0
-493 -502 0
-494 -503 0
-495 -504 0
-487 -523 0
-488 -524 0
-489 -525 0
-490 -526 0
-491 -527 0
-492 -528 0
-493 -529 0
-494 -530 0
-495 -531 0
-487 -559 0
-488 -560 0
-489 -561 0
-490 -562 0
-491 -563 0
-492 -564 0
-493 -565 0
-494 -566 0
-495 -567 0
-487 -577 0
-488 -578 0
-489 -579 0
-490 -580 0
-491 -581 0
-492 -582 0
-493 -583 0
-494 -584 0
-495 -585 0
-487 -730 0
-488 -731 0
-489 -732 0
-490 -733 0
-491 -734 0
-492 -735 0
-493 -736 0
-494 -737 0
-495 -738 0
-487 -847 0
-488 -848 0
-489 -849 0
-490 -850 0
-491 -851 0
-492 -852 0
-493 -853 0
-494 -854 0
-495 -855 0
-487 -865 0
-488 -866 0
-489 -867 0
-490 -868 0
-491 -869 0
-492 -870 0
-493 -871 0
-494 -872 0
-495 -873 0
-487 -910 0
-488 -911 0
-489 -912 0
-490 -913 0
-491 -914 0
-492 -915 0
-493 -916 0
-494 -917 0
-495 -918 0
-487 -919 0
-488 -920 0
-489 -921 0
-490 -922 0
-491 -923 0
-492 -924 0
-493 -925 0
-494 -926 0
-495 -927 0
-487 -982 0
-488 -983 0
-489 -984 0
-490 -985 0
-491 -986 0
-492 -987 0
-493 -988 0
-494 -989 0
-495 -990 0
-487 -1000 0
-488 -1001 0
-489 -1002 0
-490 -1003 0
-491 -1004 0
-492 -1005 0
-493 -1006 0
-494 -1007 0
-495 -1008 0
-487 -1081 0
-488 -1082 0
-489 -1083 0
-490 -1084 0
-491 -1085 0
-492 -1086 0
-493 -1087 0
-494 -1088 0
-495 -1089 0
-487 -1189 0
-488 -1190 0
-489 -1191 0
-490 -1192 0
-491 -1193 0
-492 -1194 0
-493 -1195 0
-494 -1196 0
-495 -1197 0
-487 -1225 0
-488 -1226 0
-489 -1227 0
-490 -1228 0
-491 -1229 0
-492 -1230 0
-493 -1231 0
-494 -1232 0
-495 -1233 0
-487 -1243 0
-488 -1244 0
-489 -1245 0
-490 -1246 0
-491 -1247 0
-492 -1248 0
-493 -1249 0
-494 -1250 0
-495 -1251 0
-487 -1360 0
-488 -1361 0
-489 -1362 0
-490 -1363 0
-491 -1364 0
-492 -1365 0
-493 -1366 0
-494 -1367 0
-495 -1368 0
-487 -1468 0
-488 -1469 0
-489 -1470 0
-490 -1471 0
-491 -1472 0
-492 -1473 0
-493 -1474 0
-494 -1475 0
-495 -1476 0
-487 -1486 0
-488 -1487 0
-489 -1488 0
-490 -1489 0
-491 -1490 0
-492 -1491 0
-493 -1492 0
-494 -1493 0
-495 -1494 0
-487 -1504 0
-488 -1505 0
-489 -1506 0
-490 -1507 0
-491 -1508 0
-492 -1509 0
-493 -1510 0
-494 -1511 0
-495 -1512 0
-487 -1540 0
-488 -1541 0
-489 -1542 0
-490 -1543 0
-491 -1544 0
-492 -1545 0
-493 -1546 0
-494 -1547 0
-495 -1548 0
-487 -1585 0
-488 -1586 0
-489 -1587 0
-490 -1588 0
-491 -1589 0
-492 -1590 0
-493 -1591 0
-494 -1592 0
-495 -1593 0
-487 -1684 0
-488 -1685 0
-489 -1686 0
-490 -1687 0
-491 -1688 0
-492 -1689 0
-493 -1690 0
-494 -1691 0
-495 -1692 0
-487 -1711 0
-488 -1712 0
-489 -1713 0
-490 -1714 0
-491 -1715 0
-492 -1716 0
-493 -1717 0
-494 -1718 0
-495 -1719 0
-487 -1801 0
-488 -1802 0
-489 -1803 0
-490 -1804 0
-491 -1805 0
-492 -1806 0
-493 -1807 0
-494 -1808 0
-495 -1809 0
-487 -1909 0
-488 -1910 0
-489 -1911 0
-490 -1912 0
-491 -1913 0
-492 -1914 0
-493 -1915 0
-494 -1916 0
-495 -1917 0
-487 -1918 0
-488 -1919 0
-489 -1920 0
-490 -1921 0
-491 -1922 0
-492 -1923 0
-493 -1924 0
-494 -1925 0
-495 -1926 0
-487 -1972 0
-488 -1973 0
-489 -1974 0
-490 -1975 0
-491 -1976 0
-492 -1977 0
-493 -1978 0
-494 -1979 0
-495 -1980 0
-487 -1981 0
-488 -1982 0
-489 -1983 0
-490 -1984 0
-491 -1985 0
-492 -1986 0
-493 -1987 0
-494 -1988 0
-495 -1989 0
-487 -1990 0
-488 -1991 0
-489 -1992 0
-490 -1993 0
-491 -1994 0
-492 -1995 0
-493 -1996 0
-494 -1997 0
-495 -1998 0
-487 -2161 0
-488 -2162 0
-489 -2163 0
-490 -2164 0
-491 -2165 0
-492 -2166 0
-493 -2167 0
-494 -2168 0
-495 -2169 0
-487 -2278 0
-488 -2279 0
-489 -2280 0
-490 -2281 0
-491 -2282 0
-492 -2283 0
-493 -2284 0
-494 -2285 0
-495 -2286 0
-487 -2323 0
-488 -2324 0
-489 -2325 0
-490 -2326 0
-491 -2327 0
-492 -2328 0
-493 -2329 0
-494 -2330 0
-495 -2331 0
-487 -2413 0
-488 -2414 0
-489 -2415 0
-490 -2416 0
-491 -2417 0
-492 -2418 0
-493 -2419 0
-494 -2420 0
-495 -2421 0
-487 -2440 0
-488 -2441 0
-489 -2442 0
-490 -2443 0
-491 -2444 0
-492 -2445 0
-493 -2446 0
-494 -2447 0
-495 -2448 0
-487 -2494 0
-488 -2495 0
-489 -2496 0
-490 -2497 0
-491 -2498 0
-492 -2499 0
-493 -2500 0
-494 -2501 0
-495 -2502 0
-487 -2656 0
-488 -2657 0
-489 -2658 0
-490 -2659 0
-491 -2660 0
-492 -2661 0
-493 -2662 0
-494 -2663 0
-495 -2664 0
-487 -2701 0
-488 -2702 0
-489 -2703 0
-490 -2704 0
-491 -2705 0
-492 -2706 0
-493 -2707 0
-494 -2708 0
-495 -2709 0
-487 -2728 0
-488 -2729 0
-489 -2730 0
-490 -2731 0
-491 -2732 0
-492 -2733 0
-493 -2734 0
-494 -2735 0
-495 -2736 0
-487 -2791 0
-488 -2792 0
-489 -2793 0
-490 -2794 0
-491 -2795 0
-492 -2796 0
-493 -2797 0
-494 -2798 0
-495 -2799 0
-487 -2800 0
-488 -2801 0
-489 -2802 0
-490 -2803 0
-491 -2804 0
-492 -2805 0
-493 -2806 0
-494 -2807 0
-495 -2808 0
-487 -2809 0
-488 -2810 0
-489 -2811 0
-490 -2812 0
-491 -2813 0
-492 -2814 0
-493 -2815 0
-494 -2816 0
-495 -2817 0
-487 -2836 0
-488 -2837 0
-489 -2838 0
-490 -2839 0
-491 -2840 0
-492 -2841 0
-493 -2842 0
-494 -2843 0
-495 -2844 0
-487 -2854 0
-488 -2855 0
-489 -2856 0
-490 -2857 0
-491 -2858 0
-492 -2859 0
-493 -2860 0
-494 -2861 0
-495 -2862 0
-487 -2935 0
-488 -2936 0
-489 -2937 0
-490 -2938 0
-491 -2939 0
-492 -2940 0
-493 -2941 0
-494 -2942 0
-495 -2943 0
-496 -523 0
-497 -524 0
-498 -525 0
-499 -526 0
-500 -527 0
-501 -528 0
-502 -529 0
-503 -530 0
-504 -531 0
-496 -568 0
-497 -569 0
-498 -570 0
-499 -571 0
-500 -572 0
-501 -573 0
-502 -574 0
-503 -575 0
-504 -576 0
-496 -577 0
-497 -578 0
-498 -579 0
-499 -580 0
-500 -581 0
-501 -582 0
-502 -583 0
-503 -584 0
-504 -585 0
-496 -739 0
-497 -740 0
-498 -741 0
-499 -742 0
-500 -743 0
-501 -744 0
-502 -745 0
-503 -746 0
-504 -747 0
-496 -838 0
-497 -839 0
-498 -840 0
-499 -841 0
-500 -842 0
-501 -843 0
-502 -844 0
-503 -845 0
-504 -846 0
-496 -856 0
-497 -857 0
-498 -858 0
-499 -859 0
-500 -860 0
-501 -861 0
-502 -862 0
-503 -863 0
-504 -864 0
-496 -928 0
-497 -929 0
-498 -930 0
-499 -931 0
-500 -932 0
-501 -933 0
-502 -934 0
-503 -935 0
-504 -936 0
-496 -937 0
-497 -938 0
-498 -939 0
-499 -940 0
-500 -941 0
-501 -942 0
-502 -943 0
-503 -944 0
-504 -945 0
-496 -991 0
-497 -992 0
-498 -993 0
-499 -994 0
-500 -995 0
-501 -996 0
-502 -997 0
-503 -998 0
-504 -999 0
-496 -1009 0
-497 -1010 0
-498 -1011 0
-499 -1012 0
-500 -1013 0
-501 -1014 0
-502 -1015 0
-503 -1016 0
-504 -1017 0
-496 -1153 0
-497 -1154 0
-498 -1155 0
-499 -1156 0
-500 -1157 0
-501 -1158 0
-502 -1159 0
-503 -1160 0
-504 -1161 0
-496 -1297 0
-497 -1298 0
-498 -1299 0
-499 -1300 0
-500 -1301 0
-501 -1302 0
-502 -1303 0
-503 -1304 0
-504 -1305 0
-496 -1396 0
-497 -1397 0
-498 -1398 0
-499 -1399 0
-500 -1400 0
-501 -1401 0
-502 -1402 0
-503 -1403 0
-504 -1404 0
-496 -1423 0
-497 -1424 0
-498 -1425 0
-499 -1426 0
-500 -1427 0
-501 -1428 0
-502 -1429 0
-503 -1430 0
-504 -1431 0
-496 -1432 0
-497 -1433 0
-498 -1434 0
-499 -1435 0
-500 -1436 0
-501 -1437 0
-502 -1438 0
-503 -1439 0
-504 -1440 0
-496 -1477 0
-497 -1478 0
-498 -1479 0
-499 -1480 0
-500 -1481 0
-501 -1482 0
-502 -1483 0
-503 -1484 0
-504 -1485 0
-496 -1495 0
-497 -1496 0
-498 -1497 0
-499 -1498 0
-500 -1499 0
-501 -1500 0
-502 -1501 0
-503 -1502 0
-504 -1503 0
-496 -1513 0
-497 -1514 0
-498 -1515 0
-499 -1516 0
-500 -1517 0
-501 -1518 0
-502 -1519 0
-503 -1520 0
-504 -1521 0
-496 -1549 0
-497 -1550 0
-498 -1551 0
-499 -1552 0
-500 -1553 0
-501 -1554 0
-502 -1555 0
-503 -1556 0
-504 -1557 0
-496 -1576 0
-497 -1577 0
-498 -1578 0
-499 -1579 0
-500 -1580 0
-501 -1581 0
-502 -1582 0
-503 -1583 0
-504 -1584 0
-496 -1693 0
-497 -1694 0
-498 -1695 0
-499 -1696 0
-500 -1697 0
-501 -1698 0
-502 -1699 0
-503 -1700 0
-504 -1701 0
-496 -1720 0
-497 -1721 0
-498 -1722 0
-499 -1723 0
-500 -1724 0
-501 -1725 0
-502 -1726 0
-503 -1727 0
-504 -1728 0
-496 -1792 0
-497 -1793 0
-498 -1794 0
-499 -1795 0
-500 -1796 0
-501 -1797 0
-502 -1798 0
-503 -1799 0
-504 -1800 0
-496 -1954 0
-497 -1955 0
-498 -1956 0
-499 -1957 0
-500 -1958 0
-501 -1959 0
-502 -1960 0
-503 -1961 0
-504 -1962 0
-496 -2125 0
-497 -2126 0
-498 -2127 0
-499 -2128 0
-500 -2129 0
-501 -2130 0
-502 -2131 0
-503 -2132 0
-504 -2133 0
-496 -2134 0
-497 -2135 0
-498 -2136 0
-499 -2137 0
-500 -2138 0
-501 -2139 0
-502 -2140 0
-503 -2141 0
-504 -2142 0
-496 -2179 0
-497 -2180 0
-498 -2181 0
-499 -2182 0
-500 -2183 0
-501 -2184 0
-502 -2185 0
-503 -2186 0
-504 -2187 0
-496 -2188 0
-497 -2189 0
-498 -2190 0
-499 -2191 0
-500 -2192 0
-501 -2193 0
-502 -2194 0
-503 -2195 0
-504 -2196 0
-496 -2197 0
-497 -2198 0
-498 -2199 0
-499 -2200 0
-500 -2201 0
-501 -2202 0
-502 -2203 0
-503 -2204 0
-504 -2205 0
-496 -2278 0
-497 -2279 0
-498 -2280 0
-499 -2281 0
-500 -2282 0
-501 -2283 0
-502 -2284 0
-503 -2285 0
-504 -2286 0
-496 -2386 0
-497 -2387 0
-498 -2388 0
-499 -2389 0
-500 -2390 0
-501 -2391 0
-502 -2392 0
-503 -2393 0
-504 -2394 0
-496 -2413 0
-497 -2414 0
-498 -2415 0
-499 -2416 0
-500 -2417 0
-501 -2418 0
-502 -2419 0
-503 -2420 0
-504 -2421 0
-496 -2440 0
-497 -2441 0
-498 -2442 0
-499 -2443 0
-500 -2444 0
-501 -2445 0
-502 -2446 0
-503 -2447 0
-504 -2448 0
-496 -2494 0
-497 -2495 0
-498 -2496 0
-499 -2497 0
-500 -2498 0
-501 -2499 0
-502 -2500 0
-503 -2501 0
-504 -2502 0
-496 -2665 0
-497 -2666 0
-498 -2667 0
-499 -2668 0
-500 -2669 0
-501 -2670 0
-502 -2671 0
-503 -2672 0
-504 -2673 0
-496 -2710 0
-497 -2711 0
-498 -2712 0
-499 -2713 0
-500 -2714 0
-501 -2715 0
-502 -2716 0
-503 -2717 0
-504 -2718 0
-496 -2719 0
-497 -2720 0
-498 -2721 0
-499 -2722 0
-500 -2723 0
-501 -2724 0
-502 -2725 0
-503 -2726 0
-504 -2727 0
-496 -2818 0
-497 -2819 0
-498 -2820 0
-499 -2821 0
-500 -2822 0
-501 -2823 0
-502 -2824 0
-503 -2825 0
-504 -2826 0
-496 -2827 0
-497 -2828 0
-498 -2829 0
-499 -2830 0
-500 -2831 0
-501 -2832 0
-502 -2833 0
-503 -2834 0
-504 -2835 0
-496 -2845 0
-497 -2846 0
-498 -2847 0
-499 -2848 0
-500 -2849 0
-501 -2850 0
-502 -2851 0
-503 -2852 0
-504 -2853 0
-496 -2863 0
-497 -2864 0
-498 -2865 0
-499 -2866 0
-500 -2867 0
-501 -2868 0
-502 -2869 0
-503 -2870 0
-504 -2871 0
-496 -2872 0
-497 -2873 0
-498 -2874 0
-499 -2875 0
-500 -2876 0
-501 -2877 0
-502 -2878 0
-503 -2879 0
-504 -2880 0
-496 -2944 0
-497 -2945 0
-498 -2946 0
-499 -2947 0
-500 -2948 0
-501 -2949 0
-502 -2950 0
-503 -2951 0
-504 -2952 0
-505 -541 0
-506 -542 0
-507 -543 0
-508 -544 0
-509 -545 0
-510 -546 0
-511 -547 0
-512 -548 0
-513 -549 0
-505 -559 0
-506 -560 0
-507 -561 0
-508 -562 0
-509 -563 0
-510 -564 0
-511 -565 0
-512 -566 0
-513 -567 0
-505 -577 0
-506 -578 0
-507 -579 0
-508 -580 0
-509 -581 0
-510 -582 0
-511 -583 0
-512 -584 0
-513 -585 0
-505 -784 0
-506 -785 0
-507 -786 0
-508 -787 0
-509 -788 0
-510 -789 0
-511 -790 0
-512 -791 0
-513 -792 0
-505 -802 0
-506 -803 0
-507 -804 0
-508 -805 0
-509 -806 0
-510 -807 0
-511 -808 0
-512 -809 0
-513 -810 0
-505 -883 0
-506 -884 0
-507 -885 0
-508 -886 0
-509 -887 0
-510 -888 0
-511 -889 0
-512 -890 0
-513 -891 0
-505 -946 0
-506 -947 0
-507 -948 0
-508 -949 0
-509 -950 0
-510 -951 0
-511 -952 0
-512 -953 0
-513 -954 0
-505 -964 0
-506 -965 0
-507 -966 0
-508 -967 0
-509 -968 0
-510 -969 0
-511 -970 0
-512 -971 0
-513 -972 0
-505 -991 0
-506 -992 0
-507 -993 0
-508 -994 0
-509 -995 0
-510 -996 0
-511 -997 0
-512 -998 0
-513 -999 0
-505 -1000 0
-506 -1001 0
-507 -1002 0
-508 -1003 0
-509 -1004 0
-510 -1005 0
-511 -1006 0
-512 -1007 0
-513 -1008 0
-505 -1117 0
-506 -1118 0
-507 -1119 0
-508 -1120 0
-509 -1121 0
-510 -1122 0
-511 -1123 0
-512 -1124 0
-513 -1125 0
-505 -1153 0
-506 -1154 0
-507 -1155 0
-508 -1156 0
-509 -1157 0
-510 -1158 0
-511 -1159 0
-512 -1160 0
-513 -1161 0
-505 -1162 0
-506 -1163 0
-507 -1164 0
-508 -1165 0
-509 -1166 0
-510 -1167 0
-511 -1168 0
-512 -1169 0
-513 -1170 0
-505 -1171 0
-506 -1172 0
-507 -1173 0
-508 -1174 0
-509 -1175 0
-510 -1176 0
-511 -1177 0
-512 -1178 0
-513 -1179 0
-505 -1198 0
-506 -1199 0
-507 -1200 0
-508 -1201 0
-509 -1202 0
-510 -1203 0
-511 -1204 0
-512 -1205 0
-513 -1206 0
-505 -1225 0
-506 -1226 0
-507 -1227 0
-508 -1228 0
-509 -1229 0
-510 -1230 0
-511 -1231 0
-512 -1232 0
-513 -1233 0
-505 -1243 0
-506 -1244 0
-507 -1245 0
-508 -1246 0
-509 -1247 0
-510 -1248 0
-511 -1249 0
-512 -1250 0
-513 -1251 0
-505 -1342 0
-506 -1343 0
-507 -1344 0
-508 -1345 0
-509 -1346 0
-510 -1347 0
-511 -1348 0
-512 -1349 0
-513 -1350 0
-505 -1531 0
-506 -1532 0
-507 -1533 0
-508 -1534 0
-509 -1535 0
-510 -1536 0
-511 -1537 0
-512 -1538 0
-513 -1539 0
-505 -1558 0
-506 -1559 0
-507 -1560 0
-508 -1561 0
-509 -1562 0
-510 -1563 0
-511 -1564 0
-512 -1565 0
-513 -1566 0
-505 -1765 0
-506 -1766 0
-507 -1767 0
-508 -1768 0
-509 -1769 0
-510 -1770 0
-511 -1771 0
-512 -1772 0
-513 -1773 0
-505 -1900 0
-506 -1901 0
-507 -1902 0
-508 -1903 0
-509 -1904 0
-510 -1905 0
-511 -1906 0
-512 -1907 0
-513 -1908 0
-505 -1918 0
-506 -1919 0
-507 -1920 0
-508 -1921 0
-509 -1922 0
-510 -1923 0
-511 -1924 0
-512 -1925 0
-513 -1926 0
-505 -1936 0
-506 -1937 0
-507 -1938 0
-508 -1939 0
-509 -1940 0
-510 -1941 0
-511 -1942 0
-512 -1943 0
-513 -1944 0
-505 -1999 0
-506 -2000 0
-507 -2001 0
-508 -2002 0
-509 -2003 0
-510 -2004 0
-511 -2005 0
-512 -2006 0
-513 -2007 0
-505 -2008 0
-506 -2009 0
-507 -2010 0
-508 -2011 0
-509 -2012 0
-510 -2013 0
-511 -2014 0
-512 -2015 0
-513 -2016 0
-505 -2017 0
-506 -2018 0
-507 -2019 0
-508 -2020 0
-509 -2021 0
-510 -2022 0
-511 -2023 0
-512 -2024 0
-513 -2025 0
-505 -2125 0
-506 -2126 0
-507 -2127 0
-508 -2128 0
-509 -2129 0
-510 -2130 0
-511 -2131 0
-512 -2132 0
-513 -2133 0
-505 -2179 0
-506 -2180 0
-507 -2181 0
-508 -2182 0
-509 -2183 0
-510 -2184 0
-511 -2185 0
-512 -2186 0
-513 -2187 0
-505 -2278 0
-506 -2279 0
-507 -2280 0
-508 -2281 0
-509 -2282 0
-510 -2283 0
-511 -2284 0
-512 -2285 0
-513 -2286 0
-505 -2296 0
-506 -2297 0
-507 -2298 0
-508 -2299 0
-509 -2300 0
-510 -2301 0
-511 -2302 0
-512 -2303 0
-513 -2304 0
-505 -2305 0
-506 -2306 0
-507 -2307 0
-508 -2308 0
-509 -2309 0
-510 -2310 0
-511 -2311 0
-512 -2312 0
-513 -2313 0
-505 -2422 0
-506 -2423 0
-507 -2424 0
-508 -2425 0
-509 -2426 0
-510 -2427 0
-511 -2428 0
-512 -2429 0
-513 -2430 0
-505 -2530 0
-506 -2531 0
-507 -2532 0
-508 -2533 0
-509 -2534 0
-510 -2535 0
-511 -2536 0
-512 -2537 0
-513 -2538 0
-505 -2602 0
-506 -2603 0
-507 -2604 0
-508 -2605 0
-509 -2606 0
-510 -2607 0
-511 -2608 0
-512 -2609 0
-513 -2610 0
-505 -2683 0
-506 -2684 0
-507 -2685 0
-508 -2686 0
-509 -2687 0
-510 -2688 0
-511 -2689 0
-512 -2690 0
-513 -2691 0
-505 -2710 0
-506 -2711 0
-507 -2712 0
-508 -2713 0
-509 -2714 0
-510 -2715 0
-511 -2716 0
-512 -2717 0
-513 -2718 0
-505 -2746 0
-506 -2747 0
-507 -2748 0
-508 -2749 0
-509 -2750 0
-510 -2751 0
-511 -2752 0
-512 -2753 0
-513 -2754 0
-505 -2755 0
-506 -2756 0
-507 -2757 0
-508 -2758 0
-509 -2759 0
-510 -2760 0
-511 -2761 0
-512 -2762 0
-513 -2763 0
-505 -2827 0
-506 -2828 0
-507 -2829 0
-508 -2830 0
-509 -2831 0
-510 -2832 0
-511 -2833 0
-512 -2834 0
-513 -2835 0
-505 -2863 0
-506 -2864 0
-507 -2865 0
-508 -2866 0
-509 -2867 0
-510 -2868 0
-511 -2869 0
-512 -2870 0
-513 -2871 0
-505 -2890 0
-506 -2891 0
-507 -2892 0
-508 -2893 0
-509 -2894 0
-510 -2895 0
-511 -2896 0
-512 -2897 0
-513 -2898 0
-505 -2935 0
-506 -2936 0
-507 -2937 0
-508 -2938 0
-509 -2939 0
-510 -2940 0
-511 -2941 0
-512 -2942 0
-513 -2943 0
-514 -532 0
-515 -533 0
-516 -534 0
-517 -535 0
-518 -536 0
-519 -537 0
-520 -538 0
-521 -539 0
-522 -540 0
-514 -568 0
-515 -569 0
-516 -570 0
-517 -571 0
-518 -572 0
-519 -573 0
-520 -574 0
-521 -575 0
-522 -576 0
-514 -577 0
-515 -578 0
-516 -579 0
-517 -580 0
-518 -581 0
-519 -582 0
-520 -583 0
-521 -584 0
-522 -585 0
-514 -775 0
-515 -776 0
-516 -777 0
-517 -778 0
-518 -779 0
-519 -780 0
-520 -781 0
-521 -782 0
-522 -783 0
-514 -811 0
-515 -812 0
-516 -813 0
-517 -814 0
-518 -815 0
-519 -816 0
-520 -817 0
-521 -818 0
-522 -819 0
-514 -874 0
-515 -875 0
-516 -876 0
-517 -877 0
-518 -878 0
-519 -879 0
-520 -880 0
-521 -881 0
-522 -882 0
-514 -955 0
-515 -956 0
-516 -957 0
-517 -958 0
-518 -959 0
-519 -960 0
-520 -961 0
-521 -962 0
-522 -963 0
-514 -964 0
-515 -965 0
-516 -966 0
-517 -967 0
-518 -968 0
-519 -969 0
-520 -970 0
-521 -971 0
-522 -972 0
-514 -982 0
-515 -983 0
-516 -984 0
-517 -985 0
-518 -986 0
-519 -987 0
-520 -988 0
-521 -989 0
-522 -990 0
-514 -1009 0
-515 -1010 0
-516 -1011 0
-517 -1012 0
-518 -1013 0
-519 -1014 0
-520 -1015 0
-521 -1016 0
-522 -1017 0
-514 -1126 0
-515 -1127 0
-516 -1128 0
-517 -1129 0
-518 -1130 0
-519 -1131 0
-520 -1132 0
-521 -1133 0
-522 -1134 0
-514 -1333 0
-515 -1334 0
-516 -1335 0
-517 -1336 0
-518 -1337 0
-519 -1338 0
-520 -1339 0
-521 -1340 0
-522 -1341 0
-514 -1360 0
-515 -1361 0
-516 -1362 0
-517 -1363 0
-518 -1364 0
-519 -1365 0
-520 -1366 0
-521 -1367 0
-522 -1368 0
-514 -1369 0
-515 -1370 0
-516 -1371 0
-517 -1372 0
-518 -1373 0
-519 -1374 0
-520 -1375 0
-521 -1376 0
-522 -1377 0
-514 -1378 0
-515 -1379 0
-516 -1380 0
-517 -1381 0
-518 -1382 0
-519 -1383 0
-520 -1384 0
-521 -1385 0
-522 -1386 0
-514 -1405 0
-515 -1406 0
-516 -1407 0
-517 -1408 0
-518 -1409 0
-519 -1410 0
-520 -1411 0
-521 -1412 0
-522 -1413 0
-514 -1423 0
-515 -1424 0
-516 -1425 0
-517 -1426 0
-518 -1427 0
-519 -1428 0
-520 -1429 0
-521 -1430 0
-522 -1431 0
-514 -1432 0
-515 -1433 0
-516 -1434 0
-517 -1435 0
-518 -1436 0
-519 -1437 0
-520 -1438 0
-521 -1439 0
-522 -1440 0
-514 -1522 0
-515 -1523 0
-516 -1524 0
-517 -1525 0
-518 -1526 0
-519 -1527 0
-520 -1528 0
-521 -1529 0
-522 -1530 0
-514 -1567 0
-515 -1568 0
-516 -1569 0
-517 -1570 0
-518 -1571 0
-519 -1572 0
-520 -1573 0
-521 -1574 0
-522 -1575 0
-514 -1756 0
-515 -1757 0
-516 -1758 0
-517 -1759 0
-518 -1760 0
-519 -1761 0
-520 -1762 0
-521 -1763 0
-522 -1764 0
-514 -1909 0
-515 -1910 0
-516 -1911 0
-517 -1912 0
-518 -1913 0
-519 -1914 0
-520 -1915 0
-521 -1916 0
-522 -1917 0
-514 -1936 0
-515 -1937 0
-516 -1938 0
-517 -1939 0
-518 -1940 0
-519 -1941 0
-520 -1942 0
-521 -1943 0
-522 -1944 0
-514 -1981 0
-515 -1982 0
-516 -1983 0
-517 -1984 0
-518 -1985 0
-519 -1986 0
-520 -1987 0
-521 -1988 0
-522 -1989 0
-514 -2116 0
-515 -2117 0
-516 -2118 0
-517 -2119 0
-518 -2120 0
-519 -2121 0
-520 -2122 0
-521 -2123 0
-522 -2124 0
-514 -2134 0
-515 -2135 0
-516 -2136 0
-517 -2137 0
-518 -2138 0
-519 -2139 0
-520 -2140 0
-521 -2141 0
-522 -2142 0
-514 -2206 0
-515 -2207 0
-516 -2208 0
-517 -2209 0
-518 -2210 0
-519 -2211 0
-520 -2212 0
-521 -2213 0
-522 -2214 0
-514 -2215 0
-515 -2216 0
-516 -2217 0
-517 -2218 0
-518 -2219 0
-519 -2220 0
-520 -2221 0
-521 -2222 0
-522 -2223 0
-514 -2224 0
-515 -2225 0
-516 -2226 0
-517 -2227 0
-518 -2228 0
-519 -2229 0
-520 -2230 0
-521 -2231 0
-522 -2232 0
-514 -2278 0
-515 -2279 0
-516 -2280 0
-517 -2281 0
-518 -2282 0
-519 -2283 0
-520 -2284 0
-521 -2285 0
-522 -2286 0
-514 -2359 0
-515 -2360 0
-516 -2361 0
-517 -2362 0
-518 -2363 0
-519 -2364 0
-520 -2365 0
-521 -2366 0
-522 -2367 0
-514 -2368 0
-515 -2369 0
-516 -2370 0
-517 -2371 0
-518 -2372 0
-519 -2373 0
-520 -2374 0
-521 -2375 0
-522 -2376 0
-514 -2431 0
-515 -2432 0
-516 -2433 0
-517 -2434 0
-518 -2435 0
-519 -2436 0
-520 -2437 0
-521 -2438 0
-522 -2439 0
-514 -2521 0
-515 -2522 0
-516 -2523 0
-517 -2524 0
-518 -2525 0
-519 -2526 0
-520 -2527 0
-521 -2528 0
-522 -2529 0
-514 -2647 0
-515 -2648 0
-516 -2649 0
-517 -2650 0
-518 -2651 0
-519 -2652 0
-520 -2653 0
-521 -2654 0
-522 -2655 0
-514 -2692 0
-515 -2693 0
-516 -2694 0
-517 -2695 0
-518 -2696 0
-519 -2697 0
-520 -2698 0
-521 -2699 0
-522 -2700 0
-514 -2728 0
-515 -2729 0
-516 -2730 0
-517 -2731 0
-518 -2732 0
-519 -2733 0
-520 -2734 0
-521 -2735 0
-522 -2736 0
-514 -2773 0
-515 -2774 0
-516 -2775 0
-517 -2776 0
-518 -2777 0
-519 -2778 0
-520 -2779 0
-521 -2780 0
-522 -2781 0
-514 -2782 0
-515 -2783 0
-516 -2784 0
-517 -2785 0
-518 -2786 0
-519 -2787 0
-520 -2788 0
-521 -2789 0
-522 -2790 0
-514 -2836 0
-515 -2837 0
-516 -2838 0
-517 -2839 0
-518 -2840 0
-519 -2841 0
-520 -2842 0
-521 -2843 0
-522 -2844 0
-514 -2854 0
-515 -2855 0
-516 -2856 0
-517 -2857 0
-518 -2858 0
-519 -2859 0
-520 -2860 0
-521 -2861 0
-522 -2862 0
-514 -2881 0
-515 -2882 0
-516 -2883 0
-517 -2884 0
-518 -2885 0
-519 -2886 0
-520 -2887 0
-521 -2888 0
-522 -2889 0
-514 -2944 0
-515 -2945 0
-516 -2946 0
-517 -2947 0
-518 -2948 0
-519 -2949 0
-520 -2950 0
-521 -2951 0
-522 -2952 0
-523 -559 0
-524 -560 0
-525 -561 0
-526 -562 0
-527 -563 0
-528 -564 0
-529 -565 0
-530 -566 0
-531 -567 0
-523 -568 0
-524 -569 0
-525 -570 0
-526 -571 0
-527 -572 0
-528 -573 0
-529 -574 0
-530 -575 0
-531 -576 0
-523 -766 0
-524 -767 0
-525 -768 0
-526 -769 0
-527 -770 0
-528 -771 0
-529 -772 0
-530 -773 0
-531 -774 0
-523 -964 0
-524 -965 0
-525 -966 0
-526 -967 0
-527 -968 0
-528 -969 0
-529 -970 0
-530 -971 0
-531 -972 0
-523 -973 0
-524 -974 0
-525 -975 0
-526 -976 0
-527 -977 0
-528 -978 0
-529 -979 0
-530 -980 0
-531 -981 0
-523 -1657 0
-524 -1658 0
-525 -1659 0
-526 -1660 0
-527 -1661 0
-528 -1662 0
-529 -1663 0
-530 -1664 0
-531 -1665 0
-523 -1666 0
-524 -1667 0
-525 -1668 0
-526 -1669 0
-527 -1670 0
-528 -1671 0
-529 -1672 0
-530 -1673 0
-531 -1674 0
-523 -1711 0
-524 -1712 0
-525 -1713 0
-526 -1714 0
-527 -1715 0
-528 -1716 0
-529 -1717 0
-530 -1718 0
-531 -1719 0
-523 -1720 0
-524 -1721 0
-525 -1722 0
-526 -1723 0
-527 -1724 0
-528 -1725 0
-529 -1726 0
-530 -1727 0
-531 -1728 0
-523 -1756 0
-524 -1757 0
-525 -1758 0
-526 -1759 0
-527 -1760 0
-528 -1761 0
-529 -1762 0
-530 -1763 0
-531 -1764 0
-523 -1765 0
-524 -1766 0
-525 -1767 0
-526 -1768 0
-527 -1769 0
-528 -1770 0
-529 -1771 0
-530 -1772 0
-531 -1773 0
-523 -1846 0
-524 -1847 0
-525 -1848 0
-526 -1849 0
-527 -1850 0
-528 -1851 0
-529 -1852 0
-530 -1853 0
-531 -1854 0
-523 -1882 0
-524 -1883 0
-525 -1884 0
-526 -1885 0
-527 -1886 0
-528 -1887 0
-529 -1888 0
-530 -1889 0
-531 -1890 0
-523 -1927 0
-524 -1928 0
-525 -1929 0
-526 -1930 0
-527 -1931 0
-528 -1932 0
-529 -1933 0
-530 -1934 0
-531 -1935 0
-523 -1945 0
-524 -1946 0
-525 -1947 0
-526 -1948 0
-527 -1949 0
-528 -1950 0
-529 -1951 0
-530 -1952 0
-531 -1953 0
-523 -2026 0
-524 -2027 0
-525 -2028 0
-526 -2029 0
-527 -2030 0
-528 -2031 0
-529 -2032 0
-530 -2033 0
-531 -2034 0
-523 -2062 0
-524 -2063 0
-525 -2064 0
-526 -2065 0
-527 -2066 0
-528 -2067 0
-529 -2068 0
-530 -2069 0
-531 -2070 0
-523 -2098 0
-524 -2099 0
-525 -2100 0
-526 -2101 0
-527 -2102 0
-528 -2103 0
-529 -2104 0
-530 -2105 0
-531 -2106 0
-523 -2143 0
-524 -2144 0
-525 -2145 0
-526 -2146 0
-527 -2147 0
-528 -2148 0
-529 -2149 0
-530 -2150 0
-531 -2151 0
-523 -2152 0
-524 -2153 0
-525 -2154 0
-526 -2155 0
-527 -2156 0
-528 -2157 0
-529 -2158 0
-530 -2159 0
-531 -2160 0
-523 -2233 0
-524 -2234 0
-525 -2235 0
-526 -2236 0
-527 -2237 0
-528 -2238 0
-529 -2239 0
-530 -2240 0
-531 -2241 0
-523 -2314 0
-524 -2315 0
-525 -2316 0
-526 -2317 0
-527 -2318 0
-528 -2319 0
-529 -2320 0
-530 -2321 0
-531 -2322 0
-523 -2377 0
-524 -2378 0
-525 -2379 0
-526 -2380 0
-527 -2381 0
-528 -2382 0
-529 -2383 0
-530 -2384 0
-531 -2385 0
-523 -2413 0
-524 -2414 0
-525 -2415 0
-526 -2416 0
-527 -2417 0
-528 -2418 0
-529 -2419 0
-530 -2420 0
-531 -2421 0
-523 -2557 0
-524 -2558 0
-525 -2559 0
-526 -2560 0
-527 -2561 0
-528 -2562 0
-529 -2563 0
-530 -2564 0
-531 -2565 0
-523 -2584 0
-524 -2585 0
-525 -2586 0
-526 -2587 0
-527 -2588 0
-528 -2589 0
-529 -2590 0
-530 -2591 0
-531 -2592 0
-523 -2611 0
-524 -2612 0
-525 -2613 0
-526 -2614 0
-527 -2615 0
-528 -2616 0
-529 -2617 0
-530 -2618 0
-531 -2619 0
-523 -2629 0
-524 -2630 0
-525 -2631 0
-526 -2632 0
-527 -2633 0
-528 -2634 0
-529 -2635 0
-530 -2636 0
-531 -2637 0
-523 -2656 0
-524 -2657 0
-525 -2658 0
-526 -2659 0
-527 -2660 0
-528 -2661 0
-529 -2662 0
-530 -2663 0
-531 -2664 0
-523 -2665 0
-524 -2666 0
-525 -2667 0
-526 -2668 0
-527 -2669 0
-528 -2670 0
-529 -2671 0
-530 -2672 0
-531 -2673 0
-523 -2746 0
-524 -2747 0
-525 -2748 0
-526 -2749 0
-527 -2750 0
-528 -2751 0
-529 -2752 0
-530 -2753 0
-531 -2754 0
-523 -2773 0
-524 -2774 0
-525 -2775 0
-526 -2776 0
-527 -2777 0
-528 -2778 0
-529 -2779 0
-530 -2780 0
-531 -2781 0
-523 -2791 0
-524 -2792 0
-525 -2793 0
-526 -2794 0
-527 -2795 0
-528 -2796 0
-529 -2797 0
-530 -2798 0
-531 -2799 0
-523 -2800 0
-524 -2801 0
-525 -2802 0
-526 -2803 0
-527 -2804 0
-528 -2805 0
-529 -2806 0
-530 -2807 0
-531 -2808 0
-523 -2818 0
-524 -2819 0
-525 -2820 0
-526 -2821 0
-527 -2822 0
-528 -2823 0
-529 -2824 0
-530 -2825 0
-531 -2826 0
-523 -2845 0
-524 -2846 0
-525 -2847 0
-526 -2848 0
-527 -2849 0
-528 -2850 0
-529 -2851 0
-530 -2852 0
-531 -2853 0
-523 -2899 0
-524 -2900 0
-525 -2901 0
-526 -2902 0
-527 -2903 0
-528 -2904 0
-529 -2905 0
-530 -2906 0
-531 -2907 0
-523 -2908 0
-524 -2909 0
-525 -2910 0
-526 -2911 0
-527 -2912 0
-528 -2913 0
-529 -2914 0
-530 -2915 0
-531 -2916 0
-523 -2926 0
-524 -2927 0
-525 -2928 0
-526 -2929 0
-527 -2930 0
-528 -2931 0
-529 -2932 0
-530 -2933 0
-531 -2934 0
-532 -550 0
-533 -551 0
-534 -552 0
-535 -553 0
-536 -554 0
-537 -555 0
-538 -556 0
-539 -557 0
-540 -558 0
-532 -568 0
-533 -569 0
-534 -570 0
-535 -571 0
-536 -572 0
-537 -573 0
-538 -574 0
-539 -575 0
-540 -576 0
-532 -766 0
-533 -767 0
-534 -768 0
-535 -769 0
-536 -770 0
-537 -771 0
-538 -772 0
-539 -773 0
-540 -774 0
-532 -928 0
-533 -929 0
-534 -930 0
-535 -931 0
-536 -932 0
-537 -933 0
-538 -934 0
-539 -935 0
-540 -936 0
-532 -1000 0
-533 -1001 0
-534 -1002 0
-535 -1003 0
-536 -1004 0
-537 -1005 0
-538 -1006 0
-539 -1007 0
-540 -1008 0
-532 -1621 0
-533 -1622 0
-534 -1623 0
-535 -1624 0
-536 -1625 0
-537 -1626 0
-538 -1627 0
-539 -1628 0
-540 -1629 0
-532 -1648 0
-533 -1649 0
-534 -1650 0
-535 -1651 0
-536 -1652 0
-537 -1653 0
-538 -1654 0
-539 -1655 0
-540 -1656 0
-532 -1702 0
-533 -1703 0
-534 -1704 0
-535 -1705 0
-536 -1706 0
-537 -1707 0
-538 -1708 0
-539 -1709 0
-540 -1710 0
-532 -1711 0
-533 -1712 0
-534 -1713 0
-535 -1714 0
-536 -1715 0
-537 -1716 0
-538 -1717 0
-539 -1718 0
-540 -1719 0
-532 -1729 0
-533 -1730 0
-534 -1731 0
-535 -1732 0
-536 -1733 0
-537 -1734 0
-538 -1735 0
-539 -1736 0
-540 -1737 0
-532 -1810 0
-533 -1811 0
-534 -1812 0
-535 -1813 0
-536 -1814 0
-537 -1815 0
-538 -1816 0
-539 -1817 0
-540 -1818 0
-532 -1873 0
-533 -1874 0
-534 -1875 0
-535 -1876 0
-536 -1877 0
-537 -1878 0
-538 -1879 0
-539 -1880 0
-540 -1881 0
-532 -1891 0
-533 -1892 0
-534 -1893 0
-535 -1894 0
-536 -1895 0
-537 -1896 0
-538 -1897 0
-539 -1898 0
-540 -1899 0
-532 -1936 0
-533 -1937 0
-534 -1938 0
-535 -1939 0
-536 -1940 0
-537 -1941 0
-538 -1942 0
-539 -1943 0
-540 -1944 0
-532 -1954 0
-533 -1955 0
-534 -1956 0
-535 -1957 0
-536 -1958 0
-537 -1959 0
-538 -1960 0
-539 -1961 0
-540 -1962 0
-532 -1963 0
-533 -1964 0
-534 -1965 0
-535 -1966 0
-536 -1967 0
-537 -1968 0
-538 -1969 0
-539 -1970 0
-540 -1971 0
-532 -2071 0
-533 -2072 0
-534 -2073 0
-535 -2074 0
-536 -2075 0
-537 -2076 0
-538 -2077 0
-539 -2078 0
-540 -2079 0
-532 -2080 0
-533 -2081 0
-534 -2082 0
-535 -2083 0
-536 -2084 0
-537 -2085 0
-538 -2086 0
-539 -2087 0
-540 -2088 0
-532 -2143 0
-533 -2144 0
-534 -2145 0
-535 -2146 0
-536 -2147 0
-537 -2148 0
-538 -2149 0
-539 -2150 0
-540 -2151 0
-532 -2152 0
-533 -2153 0
-534 -2154 0
-535 -2155 0
-536 -2156 0
-537 -2157 0
-538 -2158 0
-539 -2159 0
-540 -2160 0
-532 -2242 0
-533 -2243 0
-534 -2244 0
-535 -2245 0
-536 -2246 0
-537 -2247 0
-538 -2248 0
-539 -2249 0
-540 -2250 0
-532 -2323 0
-533 -2324 0
-534 -2325 0
-535 -2326 0
-536 -2327 0
-537 -2328 0
-538 -2329 0
-539 -2330 0
-540 -2331 0
-532 -2359 0
-533 -2360 0
-534 -2361 0
-535 -2362 0
-536 -2363 0
-537 -2364 0
-538 -2365 0
-539 -2366 0
-540 -2367 0
-532 -2422 0
-533 -2423 0
-534 -2424 0
-535 -2425 0
-536 -2426 0
-537 -2427 0
-538 -2428 0
-539 -2429 0
-540 -2430 0
-532 -2539 0
-533 -2540 0
-534 -2541 0
-535 -2542 0
-536 -2543 0
-537 -2544 0
-538 -2545 0
-539 -2546 0
-540 -2547 0
-532 -2575 0
-533 -2576 0
-534 -2577 0
-535 -2578 0
-536 -2579 0
-537 -2580 0
-538 -2581 0
-539 -2582 0
-540 -2583 0
-532 -2611 0
-533 -2612 0
-534 -2613 0
-535 -2614 0
-536 -2615 0
-537 -2616 0
-538 -2617 0
-539 -2618 0
-540 -2619 0
-532 -2629 0
-533 -2630 0
-534 -2631 0
-535 -2632 0
-536 -2633 0
-537 -2634 0
-538 -2635 0
-539 -2636 0
-540 -2637 0
-532 -2638 0
-533 -2639 0
-534 -2640 0
-535 -2641 0
-536 -2642 0
-537 -2643 0
-538 -2644 0
-539 -2645 0
-540 -2646 0
-532 -2647 0
-533 -2648 0
-534 -2649 0
-535 -2650 0
-536 -2651 0
-537 -2652 0
-538 -2653 0
-539 -2654 0
-540 -2655 0
-532 -2737 0
-533 -2738 0
-534 -2739 0
-535 -2740 0
-536 -2741 0
-537 -2742 0
-538 -2743 0
-539 -2744 0
-540 -2745 0
-532 -2755 0
-533 -2756 0
-534 -2757 0
-535 -2758 0
-536 -2759 0
-537 -2760 0
-538 -2761 0
-539 -2762 0
-540 -2763 0
-532 -2809 0
-533 -2810 0
-534 -2811 0
-535 -2812 0
-536 -2813 0
-537 -2814 0
-538 -2815 0
-539 -2816 0
-540 -2817 0
-532 -2827 0
-533 -2828 0
-534 -2829 0
-535 -2830 0
-536 -2831 0
-537 -2832 0
-538 -2833 0
-539 -2834 0
-540 -2835 0
-532 -2836 0
-533 -2837 0
-534 -2838 0
-535 -2839 0
-536 -2840 0
-537 -2841 0
-538 -2842 0
-539 -2843 0
-540 -2844 0
-532 -2881 0
-533 -2882 0
-534 -2883 0
-535 -2884 0
-536 -2885 0
-537 -2886 0
-538 -2887 0
-539 -2888 0
-540 -2889 0
-532 -2899 0
-533 -2900 0
-534 -2901 0
-535 -2902 0
-536 -2903 0
-537 -2904 0
-538 -2905 0
-539 -2906 0
-540 -2907 0
-532 -2917 0
-533 -2918 0
-534 -2919 0
-535 -2920 0
-536 -2921 0
-537 -2922 0
-538 -2923 0
-539 -2924 0
-540 -2925 0
-532 -2935 0
-533 -2936 0
-534 -2937 0
-535 -2938 0
-536 -2939 0
-537 -2940 0
-538 -2941 0
-539 -2942 0
-540 -2943 0
-541 -550 0
-542 -551 0
-543 -552 0
-544 -553 0
-545 -554 0
-546 -555 0
-547 -556 0
-548 -557 0
-549 -558 0
-541 -559 0
-542 -560 0
-543 -561 0
-544 -562 0
-545 -563 0
-546 -564 0
-547 -565 0
-548 -566 0
-549 -567 0
-541 -766 0
-542 -767 0
-543 -768 0
-544 -769 0
-545 -770 0
-546 -771 0
-547 -772 0
-548 -773 0
-549 -774 0
-541 -910 0
-542 -911 0
-543 -912 0
-544 -913 0
-545 -914 0
-546 -915 0
-547 -916 0
-548 -917 0
-549 -918 0
-541 -1009 0
-542 -1010 0
-543 -1011 0
-544 -1012 0
-545 -1013 0
-546 -1014 0
-547 -1015 0
-548 -1016 0
-549 -1017 0
-541 -1630 0
-542 -1631 0
-543 -1632 0
-544 -1633 0
-545 -1634 0
-546 -1635 0
-547 -1636 0
-548 -1637 0
-549 -1638 0
-541 -1639 0
-542 -1640 0
-543 -1641 0
-544 -1642 0
-545 -1643 0
-546 -1644 0
-547 -1645 0
-548 -1646 0
-549 -1647 0
-541 -1702 0
-542 -1703 0
-543 -1704 0
-544 -1705 0
-545 -1706 0
-546 -1707 0
-547 -1708 0
-548 -1709 0
-549 -1710 0
-541 -1720 0
-542 -1721 0
-543 -1722 0
-544 -1723 0
-545 -1724 0
-546 -1725 0
-547 -1726 0
-548 -1727 0
-549 -1728 0
-541 -1729 0
-542 -1730 0
-543 -1731 0
-544 -1732 0
-545 -1733 0
-546 -1734 0
-547 -1735 0
-548 -1736 0
-549 -1737 0
-541 -1819 0
-542 -1820 0
-543 -1821 0
-544 -1822 0
-545 -1823 0
-546 -1824 0
-547 -1825 0
-548 -1826 0
-549 -1827 0
-541 -1855 0
-542 -1856 0
-543 -1857 0
-544 -1858 0
-545 -1859 0
-546 -1860 0
-547 -1861 0
-548 -1862 0
-549 -1863 0
-541 -1864 0
-542 -1865 0
-543 -1866 0
-544 -1867 0
-545 -1868 0
-546 -1869 0
-547 -1870 0
-548 -1871 0
-549 -1872 0
-541 -1927 0
-542 -1928 0
-543 -1929 0
-544 -1930 0
-545 -1931 0
-546 -1932 0
-547 -1933 0
-548 -1934 0
-549 -1935 0
-541 -1936 0
-542 -1937 0
-543 -1938 0
-544 -1939 0
-545 -1940 0
-546 -1941 0
-547 -1942 0
-548 -1943 0
-549 -1944 0
-541 -1945 0
-542 -1946 0
-543 -1947 0
-544 -1948 0
-545 -1949 0
-546 -1950 0
-547 -1951 0
-548 -1952 0
-549 -1953 0
-541 -2035 0
-542 -2036 0
-543 -2037 0
-544 -2038 0
-545 -2039 0
-546 -2040 0
-547 -2041 0
-548 -2042 0
-549 -2043 0
-541 -2089 0
-542 -2090 0
-543 -2091 0
-544 -2092 0
-545 -2093 0
-546 -2094 0
-547 -2095 0
-548 -2096 0
-549 -2097 0
-541 -2107 0
-542 -2108 0
-543 -2109 0
-544 -2110 0
-545 -2111 0
-546 -2112 0
-547 -2113 0
-548 -2114 0
-549 -2115 0
-541 -2161 0
-542 -2162 0
-543 -2163 0
-544 -2164 0
-545 -2165 0
-546 -2166 0
-547 -2167 0
-548 -2168 0
-549 -2169 0
-541 -2170 0
-542 -2171 0
-543 -2172 0
-544 -2173 0
-545 -2174 0
-546 -2175 0
-547 -2176 0
-548 -2177 0
-549 -2178 0
-541 -2296 0
-542 -2297 0
-543 -2298 0
-544 -2299 0
-545 -2300 0
-546 -2301 0
-547 -2302 0
-548 -2303 0
-549 -2304 0
-541 -2386 0
-542 -2387 0
-543 -2388 0
-544 -2389 0
-545 -2390 0
-546 -2391 0
-547 -2392 0
-548 -2393 0
-549 -2394 0
-541 -2431 0
-542 -2432 0
-543 -2433 0
-544 -2434 0
-545 -2435 0
-546 -2436 0
-547 -2437 0
-548 -2438 0
-549 -2439 0
-541 -2539 0
-542 -2540 0
-543 -2541 0
-544 -2542 0
-545 -2543 0
-546 -2544 0
-547 -2545 0
-548 -2546 0
-549 -2547 0
-541 -2557 0
-542 -2558 0
-543 -2559 0
-544 -2560 0
-545 -2561 0
-546 -2562 0
-547 -2563 0
-548 -2564 0
-549 -2565 0
-541 -2575 0
-542 -2576 0
-543 -2577 0
-544 -2578 0
-545 -2579 0
-546 -2580 0
-547 -2581 0
-548 -2582 0
-549 -2583 0
-541 -2584 0
-542 -2585 0
-543 -2586 0
-544 -2587 0
-545 -2588 0
-546 -2589 0
-547 -2590 0
-548 -2591 0
-549 -2592 0
-541 -2593 0
-542 -2594 0
-543 -2595 0
-544 -2596 0
-545 -2597 0
-546 -2598 0
-547 -2599 0
-548 -2600 0
-549 -2601 0
-541 -2602 0
-542 -2603 0
-543 -2604 0
-544 -2605 0
-545 -2606 0
-546 -2607 0
-547 -2608 0
-548 -2609 0
-549 -2610 0
-541 -2764 0
-542 -2765 0
-543 -2766 0
-544 -2767 0
-545 -2768 0
-546 -2769 0
-547 -2770 0
-548 -2771 0
-549 -2772 0
-541 -2782 0
-542 -2783 0
-543 -2784 0
-544 -2785 0
-545 -2786 0
-546 -2787 0
-547 -2788 0
-548 -2789 0
-549 -2790 0
-541 -2854 0
-542 -2855 0
-543 -2856 0
-544 -2857 0
-545 -2858 0
-546 -2859 0
-547 -2860 0
-548 -2861 0
-549 -2862 0
-541 -2863 0
-542 -2864 0
-543 -2865 0
-544 -2866 0
-545 -2867 0
-546 -2868 0
-547 -2869 0
-548 -2870 0
-549 -2871 0
-541 -2872 0
-542 -2873 0
-543 -2874 0
-544 -2875 0
-545 -2876 0
-546 -2877 0
-547 -2878 0
-548 -2879 0
-549 -2880 0
-541 -2890 0
-542 -2891 0
-543 -2892 0
-544 -2893 0
-545 -2894 0
-546 -2895 0
-547 -2896 0
-548 -2897 0
-549 -2898 0
-541 -2908 0
-542 -2909 0
-543 -2910 0
-544 -2911 0
-545 -2912 0
-546 -2913 0
-547 -2914 0
-548 -2915 0
-549 -2916 0
-541 -2917 0
-542 -2918 0
-543 -2919 0
-544 -2920 0
-545 -2921 0
-546 -2922 0
-547 -2923 0
-548 -2924 0
-549 -2925 0
-541 -2944 0
-542 -2945 0
-543 -2946 0
-544 -2947 0
-545 -2948 0
-546 -2949 0
-547 -2950 0
-548 -2951 0
-549 -2952 0
-550 -577 0
-551 -578 0
-552 -579 0
-553 -580 0
-554 -581 0
-555 -582 0
-556 -583 0
-557 -584 0
-558 -585 0
-550 -667 0
-551 -668 0
-552 -669 0
-553 -670 0
-554 -671 0
-555 -672 0
-556 -673 0
-557 -674 0
-558 -675 0
-550 -676 0
-551 -677 0
-552 -678 0
-553 -679 0
-554 -680 0
-555 -681 0
-556 -682 0
-557 -683 0
-558 -684 0
-550 -748 0
-551 -749 0
-552 -750 0
-553 -751 0
-554 -752 0
-555 -753 0
-556 -754 0
-557 -755 0
-558 -756 0
-550 -757 0
-551 -758 0
-552 -759 0
-553 -760 0
-554 -761 0
-555 -762 0
-556 -763 0
-557 -764 0
-558 -765 0
-550 -946 0
-551 -947 0
-552 -948 0
-553 -949 0
-554 -950 0
-555 -951 0
-556 -952 0
-557 -953 0
-558 -954 0
-550 -955 0
-551 -956 0
-552 -957 0
-553 -958 0
-554 -959 0
-555 -960 0
-556 -961 0
-557 -962 0
-558 -963 0
-550 -1711 0
-551 -1712 0
-552 -1713 0
-553 -1714 0
-554 -1715 0
-555 -1716 0
-556 -1717 0
-557 -1718 0
-558 -1719 0
-550 -1720 0
-551 -1721 0
-552 -1722 0
-553 -1723 0
-554 -1724 0
-555 -1725 0
-556 -1726 0
-557 -1727 0
-558 -1728 0
-550 -1729 0
-551 -1730 0
-552 -1731 0
-553 -1732 0
-554 -1733 0
-555 -1734 0
-556 -1735 0
-557 -1736 0
-558 -1737 0
-550 -1774 0
-551 -1775 0
-552 -1776 0
-553 -1777 0
-554 -1778 0
-555 -1779 0
-556 -1780 0
-557 -1781 0
-558 -1782 0
-550 -1783 0
-551 -1784 0
-552 -1785 0
-553 -1786 0
-554 -1787 0
-555 -1788 0
-556 -1789 0
-557 -1790 0
-558 -1791 0
-550 -1864 0
-551 -1865 0
-552 -1866 0
-553 -1867 0
-554 -1868 0
-555 -1869 0
-556 -1870 0
-557 -1871 0
-558 -1872 0
-550 -1981 0
-551 -1982 0
-552 -1983 0
-553 -1984 0
-554 -1985 0
-555 -1986 0
-556 -1987 0
-557 -1988 0
-558 -1989 0
-550 -2080 0
-551 -2081 0
-552 -2082 0
-553 -2083 0
-554 -2084 0
-555 -2085 0
-556 -2086 0
-557 -2087 0
-558 -2088 0
-550 -2179 0
-551 -2180 0
-552 -2181 0
-553 -2182 0
-554 -2183 0
-555 -2184 0
-556 -2185 0
-557 -2186 0
-558 -2187 0
-550 -2251 0
-551 -2252 0
-552 -2253 0
-553 -2254 0
-554 -2255 0
-555 -2256 0
-556 -2257 0
-557 -2258 0
-558 -2259 0
-550 -2296 0
-551 -2297 0
-552 -2298 0
-553 -2299 0
-554 -2300 0
-555 -2301 0
-556 -2302 0
-557 -2303 0
-558 -2304 0
-550 -2359 0
-551 -2360 0
-552 -2361 0
-553 -2362 0
-554 -2363 0
-555 -2364 0
-556 -2365 0
-557 -2366 0
-558 -2367 0
-550 -2548 0
-551 -2549 0
-552 -2550 0
-553 -2551 0
-554 -2552 0
-555 -2553 0
-556 -2554 0
-557 -2555 0
-558 -2556 0
-550 -2593 0
-551 -2594 0
-552 -2595 0
-553 -2596 0
-554 -2597 0
-555 -2598 0
-556 -2599 0
-557 -2600 0
-558 -2601 0
-550 -2638 0
-551 -2639 0
-552 -2640 0
-553 -2641 0
-554 -2642 0
-555 -2643 0
-556 -2644 0
-557 -2645 0
-558 -2646 0
-550 -2683 0
-551 -2684 0
-552 -2685 0
-553 -2686 0
-554 -2687 0
-555 -2688 0
-556 -2689 0
-557 -2690 0
-558 -2691 0
-550 -2692 0
-551 -2693 0
-552 -2694 0
-553 -2695 0
-554 -2696 0
-555 -2697 0
-556 -2698 0
-557 -2699 0
-558 -2700 0
-550 -2755 0
-551 -2756 0
-552 -2757 0
-553 -2758 0
-554 -2759 0
-555 -2760 0
-556 -2761 0
-557 -2762 0
-558 -2763 0
-550 -2782 0
-551 -2783 0
-552 -2784 0
-553 -2785 0
-554 -2786 0
-555 -2787 0
-556 -2788 0
-557 -2789 0
-558 -2790 0
-550 -2899 0
-551 -2900 0
-552 -2901 0
-553 -2902 0
-554 -2903 0
-555 -2904 0
-556 -2905 0
-557 -2906 0
-558 -2907 0
-550 -2908 0
-551 -2909 0
-552 -2910 0
-553 -2911 0
-554 -2912 0
-555 -2913 0
-556 -2914 0
-557 -2915 0
-558 -2916 0
-550 -2926 0
-551 -2927 0
-552 -2928 0
-553 -2929 0
-554 -2930 0
-555 -2931 0
-556 -2932 0
-557 -2933 0
-558 -2934 0
-559 -577 0
-560 -578 0
-561 -579 0
-562 -580 0
-563 -581 0
-564 -582 0
-565 -583 0
-566 -584 0
-567 -585 0
-559 -685 0
-560 -686 0
-561 -687 0
-562 -688 0
-563 -689 0
-564 -690 0
-565 -691 0
-566 -692 0
-567 -693 0
-559 -703 0
-560 -704 0
-561 -705 0
-562 -706 0
-563 -707 0
-564 -708 0
-565 -709 0
-566 -710 0
-567 -711 0
-559 -730 0
-560 -731 0
-561 -732 0
-562 -733 0
-563 -734 0
-564 -735 0
-565 -736 0
-566 -737 0
-567 -738 0
-559 -784 0
-560 -785 0
-561 -786 0
-562 -787 0
-563 -788 0
-564 -789 0
-565 -790 0
-566 -791 0
-567 -792 0
-559 -919 0
-560 -920 0
-561 -921 0
-562 -922 0
-563 -923 0
-564 -924 0
-565 -925 0
-566 -926 0
-567 -927 0
-559 -991 0
-560 -992 0
-561 -993 0
-562 -994 0
-563 -995 0
-564 -996 0
-565 -997 0
-566 -998 0
-567 -999 0
-559 -1639 0
-560 -1640 0
-561 -1641 0
-562 -1642 0
-563 -1643 0
-564 -1644 0
-565 -1645 0
-566 -1646 0
-567 -1647 0
-559 -1711 0
-560 -1712 0
-561 -1713 0
-562 -1714 0
-563 -1715 0
-564 -1716 0
-565 -1717 0
-566 -1718 0
-567 -1719 0
-559 -1792 0
-560 -1793 0
-561 -1794 0
-562 -1795 0
-563 -1796 0
-564 -1797 0
-565 -1798 0
-566 -1799 0
-567 -1800 0
-559 -1936 0
-560 -1937 0
-561 -1938 0
-562 -1939 0
-563 -1940 0
-564 -1941 0
-565 -1942 0
-566 -1943 0
-567 -1944 0
-559 -1945 0
-560 -1946 0
-561 -1947 0
-562 -1948 0
-563 -1949 0
-564 -1950 0
-565 -1951 0
-566 -1952 0
-567 -1953 0
-559 -1972 0
-560 -1973 0
-561 -1974 0
-562 -1975 0
-563 -1976 0
-564 -1977 0
-565 -1978 0
-566 -1979 0
-567 -1980 0
-559 -2008 0
-560 -2009 0
-561 -2010 0
-562 -2011 0
-563 -2012 0
-564 -2013 0
-565 -2014 0
-566 -2015 0
-567 -2016 0
-559 -2098 0
-560 -2099 0
-561 -2100 0
-562 -2101 0
-563 -2102 0
-564 -2103 0
-565 -2104 0
-566 -2105 0
-567 -2106 0
-559 -2206 0
-560 -2207 0
-561 -2208 0
-562 -2209 0
-563 -2210 0
-564 -2211 0
-565 -2212 0
-566 -2213 0
-567 -2214 0
-559 -2269 0
-560 -2270 0
-561 -2271 0
-562 -2272 0
-563 -2273 0
-564 -2274 0
-565 -2275 0
-566 -2276 0
-567 -2277 0
-559 -2296 0
-560 -2297 0
-561 -2298 0
-562 -2299 0
-563 -2300 0
-564 -2301 0
-565 -2302 0
-566 -2303 0
-567 -2304 0
-559 -2413 0
-560 -2414 0
-561 -2415 0
-562 -2416 0
-563 -2417 0
-564 -2418 0
-565 -2419 0
-566 -2420 0
-567 -2421 0
-559 -2566 0
-560 -2567 0
-561 -2568 0
-562 -2569 0
-563 -2570 0
-564 -2571 0
-565 -2572 0
-566 -2573 0
-567 -2574 0
-559 -2602 0
-560 -2603 0
-561 -2604 0
-562 -2605 0
-563 -2606 0
-564 -2607 0
-565 -2608 0
-566 -2609 0
-567 -2610 0
-559 -2656 0
-560 -2657 0
-561 -2658 0
-562 -2659 0
-563 -2660 0
-564 -2661 0
-565 -2662 0
-566 -2663 0
-567 -2664 0
-559 -2701 0
-560 -2702 0
-561 -2703 0
-562 -2704 0
-563 -2705 0
-564 -2706 0
-565 -2707 0
-566 -2708 0
-567 -2709 0
-559 -2710 0
-560 -2711 0
-561 -2712 0
-562 -2713 0
-563 -2714 0
-564 -2715 0
-565 -2716 0
-566 -2717 0
-567 -2718 0
-559 -2800 0
-560 -2801 0
-561 -2802 0
-562 -2803 0
-563 -2804 0
-564 -2805 0
-565 -2806 0
-566 -2807 0
-567 -2808 0
-559 -2863 0
-560 -2864 0
-561 -2865 0
-562 -2866 0
-563 -2867 0
-564 -2868 0
-565 -2869 0
-566 -2870 0
-567 -2871 0
-559 -2899 0
-560 -2900 0
-561 -2901 0
-562 -2902 0
-563 -2903 0
-564 -2904 0
-565 -2905 0
-566 -2906 0
-567 -2907 0
-559 -2917 0
-560 -2918 0
-561 -2919 0
-562 -2920 0
-563 -2921 0
-564 -2922 0
-565 -2923 0
-566 -2924 0
-567 -2925 0
-559 -2935 0
-560 -2936 0
-561 -2937 0
-562 -2938 0
-563 -2939 0
-564 -2940 0
-565 -2941 0
-566 -2942 0
-567 -2943 0
-568 -577 0
-569 -578 0
-570 -579 0
-571 -580 0
-572 -581 0
-573 -582 0
-574 -583 0
-575 -584 0
-576 -585 0
-568 -694 0
-569 -695 0
-570 -696 0
-571 -697 0
-572 -698 0
-573 -699 0
-574 -700 0
-575 -701 0
-576 -702 0
-568 -712 0
-569 -713 0
-570 -714 0
-571 -715 0
-572 -716 0
-573 -717 0
-574 -718 0
-575 -719 0
-576 -720 0
-568 -739 0
-569 -740 0
-570 -741 0
-571 -742 0
-572 -743 0
-573 -744 0
-574 -745 0
-575 -746 0
-576 -747 0
-568 -775 0
-569 -776 0
-570 -777 0
-571 -778 0
-572 -779 0
-573 -780 0
-574 -781 0
-575 -782 0
-576 -783 0
-568 -937 0
-569 -938 0
-570 -939 0
-571 -940 0
-572 -941 0
-573 -942 0
-574 -943 0
-575 -944 0
-576 -945 0
-568 -982 0
-569 -983 0
-570 -984 0
-571 -985 0
-572 -986 0
-573 -987 0
-574 -988 0
-575 -989 0
-576 -990 0
-568 -1648 0
-569 -1649 0
-570 -1650 0
-571 -1651 0
-572 -1652 0
-573 -1653 0
-574 -1654 0
-575 -1655 0
-576 -1656 0
-568 -1720 0
-569 -1721 0
-570 -1722 0
-571 -1723 0
-572 -1724 0
-573 -1725 0
-574 -1726 0
-575 -1727 0
-576 -1728 0
-568 -1801 0
-569 -1802 0
-570 -1803 0
-571 -1804 0
-572 -1805 0
-573 -1806 0
-574 -1807 0
-575 -1808 0
-576 -1809 0
-568 -1882 0
-569 -1883 0
-570 -1884 0
-571 -1885 0
-572 -1886 0
-573 -1887 0
-574 -1888 0
-575 -1889 0
-576 -1890 0
-568 -1936 0
-569 -1937 0
-570 -1938 0
-571 -1939 0
-572 -1940 0
-573 -1941 0
-574 -1942 0
-575 -1943 0
-576 -1944 0
-568 -1999 0
-569 -2000 0
-570 -2001 0
-571 -2002 0
-572 -2003 0
-573 -2004 0
-574 -2005 0
-575 -2006 0
-576 -2007 0
-568 -2152 0
-569 -2153 0
-570 -2154 0
-571 -2155 0
-572 -2156 0
-573 -2157 0
-574 -2158 0
-575 -2159 0
-576 -2160 0
-568 -2188 0
-569 -2189 0
-570 -2190 0
-571 -2191 0
-572 -2192 0
-573 -2193 0
-574 -2194 0
-575 -2195 0
-576 -2196 0
-568 -2215 0
-569 -2216 0
-570 -2217 0
-571 -2218 0
-572 -2219 0
-573 -2220 0
-574 -2221 0
-575 -2222 0
-576 -2223 0
-568 -2341 0
-569 -2342 0
-570 -2343 0
-571 -2344 0
-572 -2345 0
-573 -2346 0
-574 -2347 0
-575 -2348 0
-576 -2349 0
-568 -2359 0
-569 -2360 0
-570 -2361 0
-571 -2362 0
-572 -2363 0
-573 -2364 0
-574 -2365 0
-575 -2366 0
-576 -2367 0
-568 -2413 0
-569 -2414 0
-570 -2415 0
-571 -2416 0
-572 -2417 0
-573 -2418 0
-574 -2419 0
-575 -2420 0
-576 -2421 0
-568 -2620 0
-569 -2621 0
-570 -2622 0
-571 -2623 0
-572 -2624 0
-573 -2625 0
-574 -2626 0
-575 -2627 0
-576 -2628 0
-568 -2647 0
-569 -2648 0
-570 -2649 0
-571 -2650 0
-572 -2651 0
-573 -2652 0
-574 -2653 0
-575 -2654 0
-576 -2655 0
-568 -2665 0
-569 -2666 0
-570 -2667 0
-571 -2668 0
-572 -2669 0
-573 -2670 0
-574 -2671 0
-575 -2672 0
-576 -2673 0
-568 -2719 0
-569 -2720 0
-570 -2721 0
-571 -2722 0
-572 -2723 0
-573 -2724 0
-574 -2725 0
-575 -2726 0
-576 -2727 0
-568 -2728 0
-569 -2729 0
-570 -2730 0
-571 -2731 0
-572 -2732 0
-573 -2733 0
-574 -2734 0
-575 -2735 0
-576 -2736 0
-568 -2818 0
-569 -2819 0
-570 -2820 0
-571 -2821 0
-572 -2822 0
-573 -2823 0
-574 -2824 0
-575 -2825 0
-576 -2826 0
-568 -2836 0
-569 -2837 0
-570 -2838 0
-571 -2839 0
-572 -2840 0
-573 -2841 0
-574 -2842 0
-575 -2843 0
-576 -2844 0
-568 -2908 0
-569 -2909 0
-570 -2910 0
-571 -2911 0
-572 -2912 0
-573 -2913 0
-574 -2914 0
-575 -2915 0
-576 -2916 0
-568 -2917 0
-569 -2918 0
-570 -2919 0
-571 -2920 0
-572 -2921 0
-573 -2922 0
-574 -2923 0
-575 -2924 0
-576 -2925 0
-568 -2944 0
-569 -2945 0
-570 -2946 0
-571 -2947 0
-572 -2948 0
-573 -2949 0
-574 -2950 0
-575 -2951 0
-576 -2952 0
-577 -802 0
-578 -803 0
-579 -804 0
-580 -805 0
-581 -806 0
-582 -807 0
-583 -808 0
-584 -809 0
-585 -810 0
-577 -811 0
-578 -812 0
-579 -813 0
-580 -814 0
-581 -815 0
-582 -816 0
-583 -817 0
-584 -818 0
-585 -819 0
-577 -820 0
-578 -821 0
-579 -822 0
-580 -823 0
-581 -824 0
-582 -825 0
-583 -826 0
-584 -827 0
-585 -828 0
-577 -829 0
-578 -830 0
-579 -831 0
-580 -832 0
-581 -833 0
-582 -834 0
-583 -835 0
-584 -836 0
-585 -837 0
-577 -838 0
-578 -839 0
-579 -840 0
-580 -841 0
-581 -842 0
-582 -843 0
-583 -844 0
-584 -845 0
-585 -846 0
-577 -847 0
-578 -848 0
-579 -849 0
-580 -850 0
-581 -851 0
-582 -852 0
-583 -853 0
-584 -854 0
-585 -855 0
-577 -856 0
-578 -857 0
-579 -858 0
-580 -859 0
-581 -860 0
-582 -861 0
-583 -862 0
-584 -863 0
-585 -864 0
-577 -865 0
-578 -866 0
-579 -867 0
-580 -868 0
-581 -869 0
-582 -870 0
-583 -871 0
-584 -872 0
-585 -873 0
-577 -874 0
-578 -875 0
-579 -876 0
-580 -877 0
-581 -878 0
-582 -879 0
-583 -880 0
-584 -881 0
-585 -882 0
-577 -883 0
-578 -884 0
-579 -885 0
-580 -886 0
-581 -887 0
-582 -888 0
-583 -889 0
-584 -890 0
-585 -891 0
-577 -892 0
-578 -893 0
-579 -894 0
-580 -895 0
-581 -896 0
-582 -897 0
-583 -898 0
-584 -899 0
-585 -900 0
-577 -901 0
-578 -902 0
-579 -903 0
-580 -904 0
-581 -905 0
-582 -906 0
-583 -907 0
-584 -908 0
-585 -909 0
-577 -1198 0
-578 -1199 0
-579 -1200 0
-580 -1201 0
-581 -1202 0
-582 -1203 0
-583 -1204 0
-584 -1205 0
-585 -1206 0
-577 -1207 0
-578 -1208 0
-579 -1209 0
-580 -1210 0
-581 -1211 0
-582 -1212 0
-583 -1213 0
-584 -1214 0
-585 -1215 0
-577 -1405 0
-578 -1406 0
-579 -1407 0
-580 -1408 0
-581 -1409 0
-582 -1410 0
-583 -1411 0
-584 -1412 0
-585 -1413 0
-577 -1414 0
-578 -1415 0
-579 -1416 0
-580 -1417 0
-581 -1418 0
-582 -1419 0
-583 -1420 0
-584 -1421 0
-585 -1422 0
-577 -1576 0
-578 -1577 0
-579 -1578 0
-580 -1579 0
-581 -1580 0
-582 -1581 0
-583 -1582 0
-584 -1583 0
-585 -1584 0
-577 -1585 0
-578 -1586 0
-579 -1587 0
-580 -1588 0
-581 -1589 0
-582 -1590 0
-583 -1591 0
-584 -1592 0
-585 -1593 0
-577 -1774 0
-578 -1775 0
-579 -1776 0
-580 -1777 0
-581 -1778 0
-582 -1779 0
-583 -1780 0
-584 -1781 0
-585 -1782 0
-577 -1783 0
-578 -1784 0
-579 -1785 0
-580 -1786 0
-581 -1787 0
-582 -1788 0
-583 -1789 0
-584 -1790 0
-585 -1791 0
-577 -1810 0
-578 -1811 0
-579 -1812 0
-580 -1813 0
-581 -1814 0
-582 -1815 0
-583 -1816 0
-584 -1817 0
-585 -1818 0
-577 -1819 0
-578 -1820 0
-579 -1821 0
-580 -1822 0
-581 -1823 0
-582 -1824 0
-583 -1825 0
-584 -1826 0
-585 -1827 0
-577 -1972 0
-578 -1973 0
-579 -1974 0
-580 -1975 0
-581 -1976 0
-582 -1977 0
-583 -1978 0
-584 -1979 0
-585 -1980 0
-577 -2008 0
-578 -2009 0
-579 -2010 0
-580 -2011 0
-581 -2012 0
-582 -2013 0
-583 -2014 0
-584 -2015 0
-585 -2016 0
-577 -2026 0
-578 -2027 0
-579 -2028 0
-580 -2029 0
-581 -2030 0
-582 -2031 0
-583 -2032 0
-584 -2033 0
-585 -2034 0
-577 -2035 0
-578 -2036 0
-579 -2037 0
-580 -2038 0
-581 -2039 0
-582 -2040 0
-583 -2041 0
-584 -2042 0
-585 -2043 0
-577 -2188 0
-578 -2189 0
-579 -2190 0
-580 -2191 0
-581 -2192 0
-582 -2193 0
-583 -2194 0
-584 -2195 0
-585 -2196 0
-577 -2215 0
-578 -2216 0
-579 -2217 0
-580 -2218 0
-581 -2219 0
-582 -2220 0
-583 -2221 0
-584 -2222 0
-585 -2223 0
-577 -2233 0
-578 -2234 0
-579 -2235 0
-580 -2236 0
-581 -2237 0
-582 -2238 0
-583 -2239 0
-584 -2240 0
-585 -2241 0
-577 -2242 0
-578 -2243 0
-579 -2244 0
-580 -2245 0
-581 -2246 0
-582 -2247 0
-583 -2248 0
-584 -2249 0
-585 -2250 0
-577 -2449 0
-578 -2450 0
-579 -2451 0
-580 -2452 0
-581 -2453 0
-582 -2454 0
-583 -2455 0
-584 -2456 0
-585 -2457 0
-577 -2458 0
-578 -2459 0
-579 -2460 0
-580 -2461 0
-581 -2462 0
-582 -2463 0
-583 -2464 0
-584 -2465 0
-585 -2466 0
-577 -2494 0
-578 -2495 0
-579 -2496 0
-580 -2497 0
-581 -2498 0
-582 -2499 0
-583 -2500 0
-584 -2501 0
-585 -2502 0
-577 -2503 0
-578 -2504 0
-579 -2505 0
-580 -2506 0
-581 -2507 0
-582 -2508 0
-583 -2509 0
-584 -2510 0
-585 -2511 0
-577 -2521 0
-578 -2522 0
-579 -2523 0
-580 -2524 0
-581 -2525 0
-582 -2526 0
-583 -2527 0
-584 -2528 0
-585 -2529 0
-577 -2530 0
-578 -2531 0
-579 -2532 0
-580 -2533 0
-581 -2534 0
-582 -2535 0
-583 -2536 0
-584 -2537 0
-585 -2538 0
-577 -2575 0
-578 -2576 0
-579 -2577 0
-580 -2578 0
-581 -2579 0
-582 -2580 0
-583 -2581 0
-584 -2582 0
-585 -2583 0
-577 -2584 0
-578 -2585 0
-579 -2586 0
-580 -2587 0
-581 -2588 0
-582 -2589 0
-583 -2590 0
-584 -2591 0
-585 -2592 0
-577 -2629 0
-578 -2630 0
-579 -2631 0
-580 -2632 0
-581 -2633 0
-582 -2634 0
-583 -2635 0
-584 -2636 0
-585 -2637 0
-577 -2683 0
-578 -2684 0
-579 -2685 0
-580 -2686 0
-581 -2687 0
-582 -2688 0
-583 -2689 0
-584 -2690 0
-585 -2691 0
-577 -2692 0
-578 -2693 0
-579 -2694 0
-580 -2695 0
-581 -2696 0
-582 -2697 0
-583 -2698 0
-584 -2699 0
-585 -2700 0
-577 -2701 0
-578 -2702 0
-579 -2703 0
-580 -2704 0
-581 -2705 0
-582 -2706 0
-583 -2707 0
-584 -2708 0
-585 -2709 0
-577 -2710 0
-578 -2711 0
-579 -2712 0
-580 -2713 0
-581 -2714 0
-582 -2715 0
-583 -2716 0
-584 -2717 0
-585 -2718 0
-577 -2719 0
-578 -2720 0
-579 -2721 0
-580 -2722 0
-581 -2723 0
-582 -2724 0
-583 -2725 0
-584 -2726 0
-585 -2727 0
-577 -2728 0
-578 -2729 0
-579 -2730 0
-580 -2731 0
-581 -2732 0
-582 -2733 0
-583 -2734 0
-584 -2735 0
-585 -2736 0
-577 -2755 0
-578 -2756 0
-579 -2757 0
-580 -2758 0
-581 -2759 0
-582 -2760 0
-583 -2761 0
-584 -2762 0
-585 -2763 0
-577 -2782 0
-578 -2783 0
-579 -2784 0
-580 -2785 0
-581 -2786 0
-582 -2787 0
-583 -2788 0
-584 -2789 0
-585 -2790 0
-577 -2800 0
-578 -2801 0
-579 -2802 0
-580 -2803 0
-581 -2804 0
-582 -2805 0
-583 -2806 0
-584 -2807 0
-585 -2808 0
-577 -2818 0
-578 -2819 0
-579 -2820 0
-580 -2821 0
-581 -2822 0
-582 -2823 0
-583 -2824 0
-584 -2825 0
-585 -2826 0
-577 -2836 0
-578 -2837 0
-579 -2838 0
-580 -2839 0
-581 -2840 0
-582 -2841 0
-583 -2842 0
-584 -2843 0
-585 -2844 0
-577 -2863 0
-578 -2864 0
-579 -2865 0
-580 -2866 0
-581 -2867 0
-582 -2868 0
-583 -2869 0
-584 -2870 0
-585 -2871 0
-577 -2899 0
-578 -2900 0
-579 -2901 0
-580 -2902 0
-581 -2903 0
-582 -2904 0
-583 -2905 0
-584 -2906 0
-585 -2907 0
-577 -2908 0
-578 -2909 0
-579 -2910 0
-580 -2911 0
-581 -2912 0
-582 -2913 0
-583 -2914 0
-584 -2915 0
-585 -2916 0
-577 -2917 0
-578 -2918 0
-579 -2919 0
-580 -2920 0
-581 -2921 0
-582 -2922 0
-583 -2923 0
-584 -2924 0
-585 -2925 0
-577 -2926 0
-578 -2927 0
-579 -2928 0
-580 -2929 0
-581 -2930 0
-582 -2931 0
-583 -2932 0
-584 -2933 0
-585 -2934 0
-577 -2935 0
-578 -2936 0
-579 -2937 0
-580 -2938 0
-581 -2939 0
-582 -2940 0
-583 -2941 0
-584 -2942 0
-585 -2943 0
-577 -2944 0
-578 -2945 0
-579 -2946 0
-580 -2947 0
-581 -2948 0
-582 -2949 0
-583 -2950 0
-584 -2951 0
-585 -2952 0
-586 -595 0
-587 -596 0
-588 -597 0
-589 -598 0
-590 -599 0
-591 -600 0
-592 -601 0
-593 -602 0
-594 -603 0
-586 -604 0
-587 -605 0
-588 -606 0
-589 -607 0
-590 -608 0
-591 -609 0
-592 -610 0
-593 -611 0
-594 -612 0
-586 -613 0
-587 -614 0
-588 -615 0
-589 -616 0
-590 -617 0
-591 -618 0
-592 -619 0
-593 -620 0
-594 -621 0
-586 -631 0
-587 -632 0
-588 -633 0
-589 -634 0
-590 -635 0
-591 -636 0
-592 -637 0
-593 -638 0
-594 -639 0
-586 -1612 0
-587 -1613 0
-588 -1614 0
-589 -1615 0
-590 -1616 0
-591 -1617 0
-592 -1618 0
-593 -1619 0
-594 -1620 0
-586 -1621 0
-587 -1622 0
-588 -1623 0
-589 -1624 0
-590 -1625 0
-591 -1626 0
-592 -1627 0
-593 -1628 0
-594 -1629 0
-586 -1657 0
-587 -1658 0
-588 -1659 0
-589 -1660 0
-590 -1661 0
-591 -1662 0
-592 -1663 0
-593 -1664 0
-594 -1665 0
-586 -1837 0
-587 -1838 0
-588 -1839 0
-589 -1840 0
-590 -1841 0
-591 -1842 0
-592 -1843 0
-593 -1844 0
-594 -1845 0
-586 -1846 0
-587 -1847 0
-588 -1848 0
-589 -1849 0
-590 -1850 0
-591 -1851 0
-592 -1852 0
-593 -1853 0
-594 -1854 0
-586 -1873 0
-587 -1874 0
-588 -1875 0
-589 -1876 0
-590 -1877 0
-591 -1878 0
-592 -1879 0
-593 -1880 0
-594 -1881 0
-586 -2080 0
-587 -2081 0
-588 -2082 0
-589 -2083 0
-590 -2084 0
-591 -2085 0
-592 -2086 0
-593 -2087 0
-594 -2088 0
-586 -2098 0
-587 -2099 0
-588 -2100 0
-589 -2101 0
-590 -2102 0
-591 -2103 0
-592 -2104 0
-593 -2105 0
-594 -2106 0
-595 -604 0
-596 -605 0
-597 -606 0
-598 -607 0
-599 -608 0
-600 -609 0
-601 -610 0
-602 -611 0
-603 -612 0
-595 -622 0
-596 -623 0
-597 -624 0
-598 -625 0
-599 -626 0
-600 -627 0
-601 -628 0
-602 -629 0
-603 -630 0
-595 -640 0
-596 -641 0
-597 -642 0
-598 -643 0
-599 -644 0
-600 -645 0
-601 -646 0
-602 -647 0
-603 -648 0
-595 -1603 0
-596 -1604 0
-597 -1605 0
-598 -1606 0
-599 -1607 0
-600 -1608 0
-601 -1609 0
-602 -1610 0
-603 -1611 0
-595 -1630 0
-596 -1631 0
-597 -1632 0
-598 -1633 0
-599 -1634 0
-600 -1635 0
-601 -1636 0
-602 -1637 0
-603 -1638 0
-595 -1666 0
-596 -1667 0
-597 -1668 0
-598 -1669 0
-599 -1670 0
-600 -1671 0
-601 -1672 0
-602 -1673 0
-603 -1674 0
-595 -1864 0
-596 -1865 0
-597 -1866 0
-598 -1867 0
-599 -1868 0
-600 -1869 0
-601 -1870 0
-602 -1871 0
-603 -1872 0
-595 -1882 0
-596 -1883 0
-597 -1884 0
-598 -1885 0
-599 -1886 0
-600 -1887 0
-601 -1888 0
-602 -1889 0
-603 -1890 0
-595 -2053 0
-596 -2054 0
-597 -2055 0
-598 -2056 0
-599 -2057 0
-600 -2058 0
-601 -2059 0
-602 -2060 0
-603 -2061 0
-595 -2062 0
-596 -2063 0
-597 -2064 0
-598 -2065 0
-599 -2066 0
-600 -2067 0
-601 -2068 0
-602 -2069 0
-603 -2070 0
-595 -2089 0
-596 -2090 0
-597 -2091 0
-598 -2092 0
-599 -2093 0
-600 -2094 0
-601 -2095 0
-602 -2096 0
-603 -2097 0
-604 -649 0
-605 -650 0
-606 -651 0
-607 -652 0
-608 -653 0
-609 -654 0
-610 -655 0
-611 -656 0
-612 -657 0
-604 -658 0
-605 -659 0
-606 -660 0
-607 -661 0
-608 -662 0
-609 -663 0
-610 -664 0
-611 -665 0
-612 -666 0
-604 -1639 0
-605 -1640 0
-606 -1641 0
-607 -1642 0
-608 -1643 0
-609 -1644 0
-610 -1645 0
-611 -1646 0
-612 -1647 0
-604 -1648 0
-605 -1649 0
-606 -1650 0
-607 -1651 0
-608 -1652 0
-609 -1653 0
-610 -1654 0
-611 -1655 0
-612 -1656 0
-604 -1828 0
-605 -1829 0
-606 -1830 0
-607 -1831 0
-608 -1832 0
-609 -1833 0
-610 -1834 0
-611 -1835 0
-612 -1836 0
-604 -1855 0
-605 -1856 0
-606 -1857 0
-607 -1858 0
-608 -1859 0
-609 -1860 0
-610 -1861 0
-611 -1862 0
-612 -1863 0
-604 -1891 0
-605 -1892 0
-606 -1893 0
-607 -1894 0
-608 -1895 0
-609 -1896 0
-610 -1897 0
-611 -1898 0
-612 -1899 0
-604 -2044 0
-605 -2045 0
-606 -2046 0
-607 -2047 0
-608 -2048 0
-609 -2049 0
-610 -2050 0
-611 -2051 0
-612 -2052 0
-604 -2071 0
-605 -2072 0
-606 -2073 0
-607 -2074 0
-608 -2075 0
-609 -2076 0
-610 -2077 0
-611 -2078 0
-612 -2079 0
-604 -2107 0
-605 -2108 0
-606 -2109 0
-607 -2110 0
-608 -2111 0
-609 -2112 0
-610 -2113 0
-611 -2114 0
-612 -2115 0
-613 -658 0
-614 -659 0
-615 -660 0
-616 -661 0
-617 -662 0
-618 -663 0
-619 -664 0
-620 -665 0
-621 -666 0
-613 -793 0
-614 -794 0
-615 -795 0
-616 -796 0
-617 -797 0
-618 -798 0
-619 -799 0
-620 -800 0
-621 -801 0
-613 -1324 0
-614 -1325 0
-615 -1326 0
-616 -1327 0
-617 -1328 0
-618 -1329 0
-619 -1330 0
-620 -1331 0
-621 -1332 0
-613 -1351 0
-614 -1352 0
-615 -1353 0
-616 -1354 0
-617 -1355 0
-618 -1356 0
-619 -1357 0
-620 -1358 0
-621 -1359 0
-613 -1711 0
-614 -1712 0
-615 -1713 0
-616 -1714 0
-617 -1715 0
-618 -1716 0
-619 -1717 0
-620 -1718 0
-621 -1719 0
-613 -1891 0
-614 -1892 0
-615 -1893 0
-616 -1894 0
-617 -1895 0
-618 -1896 0
-619 -1897 0
-620 -1898 0
-621 -1899 0
-613 -1981 0
-614 -1982 0
-615 -1983 0
-616 -1984 0
-617 -1985 0
-618 -1986 0
-619 -1987 0
-620 -1988 0
-621 -1989 0
-613 -2458 0
-614 -2459 0
-615 -2460 0
-616 -2461 0
-617 -2462 0
-618 -2463 0
-619 -2464 0
-620 -2465 0
-621 -2466 0
-613 -2485 0
-614 -2486 0
-615 -2487 0
-616 -2488 0
-617 -2489 0
-618 -2490 0
-619 -2491 0
-620 -2492 0
-621 -2493 0
-613 -2512 0
-614 -2513 0
-615 -2514 0
-616 -2515 0
-617 -2516 0
-618 -2517 0
-619 -2518 0
-620 -2519 0
-621 -2520 0
-613 -2737 0
-614 -2738 0
-615 -2739 0
-616 -2740 0
-617 -2741 0
-618 -2742 0
-619 -2743 0
-620 -2744 0
-621 -2745 0
-622 -649 0
-623 -650 0
-624 -651 0
-625 -652 0
-626 -653 0
-627 -654 0
-628 -655 0
-629 -656 0
-630 -657 0
-622 -793 0
-623 -794 0
-624 -795 0
-625 -796 0
-626 -797 0
-627 -798 0
-628 -799 0
-629 -800 0
-630 -801 0
-622 -1108 0
-623 -1109 0
-624 -1110 0
-625 -1111 0
-626 -1112 0
-627 -1113 0
-628 -1114 0
-629 -1115 0
-630 -1116 0
-622 -1135 0
-623 -1136 0
-624 -1137 0
-625 -1138 0
-626 -1139 0
-627 -1140 0
-628 -1141 0
-629 -1142 0
-630 -1143 0
-622 -1720 0
-623 -1721 0
-624 -1722 0
-625 -1723 0
-626 -1724 0
-627 -1725 0
-628 -1726 0
-629 -1727 0
-630 -1728 0
-622 -2107 0
-623 -2108 0
-624 -2109 0
-625 -2110 0
-626 -2111 0
-627 -2112 0
-628 -2113 0
-629 -2114 0
-630 -2115 0
-622 -2179 0
-623 -2180 0
-624 -2181 0
-625 -2182 0
-626 -2183 0
-627 -2184 0
-628 -2185 0
-629 -2186 0
-630 -2187 0
-622 -2449 0
-623 -2450 0
-624 -2451 0
-625 -2452 0
-626 -2453 0
-627 -2454 0
-628 -2455 0
-629 -2456 0
-630 -2457 0
-622 -2485 0
-623 -2486 0
-624 -2487 0
-625 -2488 0
-626 -2489 0
-627 -2490 0
-628 -2491 0
-629 -2492 0
-630 -2493 0
-622 -2512 0
-623 -2513 0
-624 -2514 0
-625 -2515 0
-626 -2516 0
-627 -2517 0
-628 -2518 0
-629 -2519 0
-630 -2520 0
-622 -2764 0
-623 -2765 0
-624 -2766 0
-625 -2767 0
-626 -2768 0
-627 -2769 0
-628 -2770 0
-629 -2771 0
-630 -2772 0
-631 -640 0
-632 -641 0
-633 -642 0
-634 -643 0
-635 -644 0
-636 -645 0
-637 -646 0
-638 -647 0
-639 -648 0
-631 -793 0
-632 -794 0
-633 -795 0
-634 -796 0
-635 -797 0
-636 -798 0
-637 -799 0
-638 -800 0
-639 -801 0
-631 -1504 0
-632 -1505 0
-633 -1506 0
-634 -1507 0
-635 -1508 0
-636 -1509 0
-637 -1510 0
-638 -1511 0
-639 -1512 0
-631 -1540 0
-632 -1541 0
-633 -1542 0
-634 -1543 0
-635 -1544 0
-636 -1545 0
-637 -1546 0
-638 -1547 0
-639 -1548 0
-631 -1666 0
-632 -1667 0
-633 -1668 0
-634 -1669 0
-635 -1670 0
-636 -1671 0
-637 -1672 0
-638 -1673 0
-639 -1674 0
-631 -1711 0
-632 -1712 0
-633 -1713 0
-634 -1714 0
-635 -1715 0
-636 -1716 0
-637 -1717 0
-638 -1718 0
-639 -1719 0
-631 -1792 0
-632 -1793 0
-633 -1794 0
-634 -1795 0
-635 -1796 0
-636 -1797 0
-637 -1798 0
-638 -1799 0
-639 -1800 0
-631 -2458 0
-632 -2459 0
-633 -2460 0
-634 -2461 0
-635 -2462 0
-636 -2463 0
-637 -2464 0
-638 -2465 0
-639 -2466 0
-631 -2467 0
-632 -2468 0
-633 -2469 0
-634 -2470 0
-635 -2471 0
-636 -2472 0
-637 -2473 0
-638 -2474 0
-639 -2475 0
-631 -2485 0
-632 -2486 0
-633 -2487 0
-634 -2488 0
-635 -2489 0
-636 -2490 0
-637 -2491 0
-638 -2492 0
-639 -2493 0
-631 -2791 0
-632 -2792 0
-633 -2793 0
-634 -2794 0
-635 -2795 0
-636 -2796 0
-637 -2797 0
-638 -2798 0
-639 -2799 0
-640 -793 0
-641 -794 0
-642 -795 0
-643 -796 0
-644 -797 0
-645 -798 0
-646 -799 0
-647 -800 0
-648 -801 0
-640 -1513 0
-641 -1514 0
-642 -1515 0
-643 -1516 0
-644 -1517 0
-645 -1518 0
-646 -1519 0
-647 -1520 0
-648 -1521 0
-640 -1549 0
-641 -1550 0
-642 -1551 0
-643 -1552 0
-644 -1553 0
-645 -1554 0
-646 -1555 0
-647 -1556 0
-648 -1557 0
-640 -1657 0
-641 -1658 0
-642 -1659 0
-643 -1660 0
-644 -1661 0
-645 -1662 0
-646 -1663 0
-647 -1664 0
-648 -1665 0
-640 -1720 0
-641 -1721 0
-642 -1722 0
-643 -1723 0
-644 -1724 0
-645 -1725 0
-646 -1726 0
-647 -1727 0
-648 -1728 0
-640 -1801 0
-641 -1802 0
-642 -1803 0
-643 -1804 0
-644 -1805 0
-645 -1806 0
-646 -1807 0
-647 -1808 0
-648 -1809 0
-640 -2449 0
-641 -2450 0
-642 -2451 0
-643 -2452 0
-644 -2453 0
-645 -2454 0
-646 -2455 0
-647 -2456 0
-648 -2457 0
-640 -2476 0
-641 -2477 0
-642 -2478 0
-643 -2479 0
-644 -2480 0
-645 -2481 0
-646 -2482 0
-647 -2483 0
-648 -2484 0
-640 -2485 0
-641 -2486 0
-642 -2487 0
-643 -2488 0
-644 -2489 0
-645 -2490 0
-646 -2491 0
-647 -2492 0
-648 -2493 0
-640 -2845 0
-641 -2846 0
-642 -2847 0
-643 -2848 0
-644 -2849 0
-645 -2850 0
-646 -2851 0
-647 -2852 0
-648 -2853 0
-649 -793 0
-650 -794 0
-651 -795 0
-652 -796 0
-653 -797 0
-654 -798 0
-655 -799 0
-656 -800 0
-657 -801 0
-649 -1162 0
-650 -1163 0
-651 -1164 0
-652 -1165 0
-653 -1166 0
-654 -1167 0
-655 -1168 0
-656 -1169 0
-657 -1170 0
-649 -1171 0
-650 -1172 0
-651 -1173 0
-652 -1174 0
-653 -1175 0
-654 -1176 0
-655 -1177 0
-656 -1178 0
-657 -1179 0
-649 -1936 0
-650 -1937 0
-651 -1938 0
-652 -1939 0
-653 -1940 0
-654 -1941 0
-655 -1942 0
-656 -1943 0
-657 -1944 0
-649 -2089 0
-650 -2090 0
-651 -2091 0
-652 -2092 0
-653 -2093 0
-654 -2094 0
-655 -2095 0
-656 -2096 0
-657 -2097 0
-649 -2206 0
-650 -2207 0
-651 -2208 0
-652 -2209 0
-653 -2210 0
-654 -2211 0
-655 -2212 0
-656 -2213 0
-657 -2214 0
-649 -2467 0
-650 -2468 0
-651 -2469 0
-652 -2470 0
-653 -2471 0
-654 -2472 0
-655 -2473 0
-656 -2474 0
-657 -2475 0
-649 -2485 0
-650 -2486 0
-651 -2487 0
-652 -2488 0
-653 -2489 0
-654 -2490 0
-655 -2491 0
-656 -2492 0
-657 -2493 0
-649 -2503 0
-650 -2504 0
-651 -2505 0
-652 -2506 0
-653 -2507 0
-654 -2508 0
-655 -2509 0
-656 -2510 0
-657 -2511 0
-649 -2890 0
-650 -2891 0
-651 -2892 0
-652 -2893 0
-653 -2894 0
-654 -2895 0
-655 -2896 0
-656 -2897 0
-657 -2898 0
-658 -793 0
-659 -794 0
-660 -795 0
-661 -796 0
-662 -797 0
-663 -798 0
-664 -799 0
-665 -800 0
-666 -801 0
-658 -1369 0
-659 -1370 0
-660 -1371 0
-661 -1372 0
-662 -1373 0
-663 -1374 0
-664 -1375 0
-665 -1376 0
-666 -1377 0
-658 -1378 0
-659 -1379 0
-660 -1380 0
-661 -1381 0
-662 -1382 0
-663 -1383 0
-664 -1384 0
-665 -1385 0
-666 -1386 0
-658 -1873 0
-659 -1874 0
-660 -1875 0
-661 -1876 0
-662 -1877 0
-663 -1878 0
-664 -1879 0
-665 -1880 0
-666 -1881 0
-658 -1936 0
-659 -1937 0
-660 -1938 0
-661 -1939 0
-662 -1940 0
-663 -1941 0
-664 -1942 0
-665 -1943 0
-666 -1944 0
-658 -1999 0
-659 -2000 0
-660 -2001 0
-661 -2002 0
-662 -2003 0
-663 -2004 0
-664 -2005 0
-665 -2006 0
-666 -2007 0
-658 -2476 0
-659 -2477 0
-660 -2478 0
-661 -2479 0
-662 -2480 0
-663 -2481 0
-664 -2482 0
-665 -2483 0
-666 -2484 0
-658 -2485 0
-659 -2486 0
-660 -2487 0
-661 -2488 0
-662 -2489 0
-663 -2490 0
-664 -2491 0
-665 -2492 0
-666 -2493 0
-658 -2503 0
-659 -2504 0
-660 -2505 0
-661 -2506 0
-662 -2507 0
-663 -2508 0
-664 -2509 0
-665 -2510 0
-666 -2511 0
-658 -2881 0
-659 -2882 0
-660 -2883 0
-661 -2884 0
-662 -2885 0
-663 -2886 0
-664 -2887 0
-665 -2888 0
-666 -2889 0
-667 -1351 0
-668 -1352 0
-669 -1353 0
-670 -1354 0
-671 -1355 0
-672 -1356 0
-673 -1357 0
-674 -1358 0
-675 -1359 0
-667 -1414 0
-668 -1415 0
-669 -1416 0
-670 -1417 0
-671 -1418 0
-672 -1419 0
-673 -1420 0
-674 -1421 0
-675 -1422 0
-667 -1441 0
-668 -1442 0
-669 -1443 0
-670 -1444 0
-671 -1445 0
-672 -1446 0
-673 -1447 0
-674 -1448 0
-675 -1449 0
-667 -1477 0
-668 -1478 0
-669 -1479 0
-670 -1480 0
-671 -1481 0
-672 -1482 0
-673 -1483 0
-674 -1484 0
-675 -1485 0
-667 -1576 0
-668 -1577 0
-669 -1578 0
-670 -1579 0
-671 -1580 0
-672 -1581 0
-673 -1582 0
-674 -1583 0
-675 -1584 0
-667 -1819 0
-668 -1820 0
-669 -1821 0
-670 -1822 0
-671 -1823 0
-672 -1824 0
-673 -1825 0
-674 -1826 0
-675 -1827 0
-667 -1855 0
-668 -1856 0
-669 -1857 0
-670 -1858 0
-671 -1859 0
-672 -1860 0
-673 -1861 0
-674 -1862 0
-675 -1863 0
-667 -1936 0
-668 -1937 0
-669 -1938 0
-670 -1939 0
-671 -1940 0
-672 -1941 0
-673 -1942 0
-674 -1943 0
-675 -1944 0
-667 -1972 0
-668 -1973 0
-669 -1974 0
-670 -1975 0
-671 -1976 0
-672 -1977 0
-673 -1978 0
-674 -1979 0
-675 -1980 0
-667 -2125 0
-668 -2126 0
-669 -2127 0
-670 -2128 0
-671 -2129 0
-672 -2130 0
-673 -2131 0
-674 -2132 0
-675 -2133 0
-676 -1135 0
-677 -1136 0
-678 -1137 0
-679 -1138 0
-680 -1139 0
-681 -1140 0
-682 -1141 0
-683 -1142 0
-684 -1143 0
-676 -1207 0
-677 -1208 0
-678 -1209 0
-679 -1210 0
-680 -1211 0
-681 -1212 0
-682 -1213 0
-683 -1214 0
-684 -1215 0
-676 -1441 0
-677 -1442 0
-678 -1443 0
-679 -1444 0
-680 -1445 0
-681 -1446 0
-682 -1447 0
-683 -1448 0
-684 -1449 0
-676 -1468 0
-677 -1469 0
-678 -1470 0
-679 -1471 0
-680 -1472 0
-681 -1473 0
-682 -1474 0
-683 -1475 0
-684 -1476 0
-676 -1585 0
-677 -1586 0
-678 -1587 0
-679 -1588 0
-680 -1589 0
-681 -1590 0
-682 -1591 0
-683 -1592 0
-684 -1593 0
-676 -1810 0
-677 -1811 0
-678 -1812 0
-679 -1813 0
-680 -1814 0
-681 -1815 0
-682 -1816 0
-683 -1817 0
-684 -1818 0
-676 -1909 0
-677 -1910 0
-678 -1911 0
-679 -1912 0
-680 -1913 0
-681 -1914 0
-682 -1915 0
-683 -1916 0
-684 -1917 0
-676 -1936 0
-677 -1937 0
-678 -1938 0
-679 -1939 0
-680 -1940 0
-681 -1941 0
-682 -1942 0
-683 -1943 0
-684 -1944 0
-676 -2071 0
-677 -2072 0
-678 -2073 0
-679 -2074 0
-680 -2075 0
-681 -2076 0
-682 -2077 0
-683 -2078 0
-684 -2079 0
-676 -2188 0
-677 -2189 0
-678 -2190 0
-679 -2191 0
-680 -2192 0
-681 -2193 0
-682 -2194 0
-683 -2195 0
-684 -2196 0
-685 -1252 0
-686 -1253 0
-687 -1254 0
-688 -1255 0
-689 -1256 0
-690 -1257 0
-691 -1258 0
-692 -1259 0
-693 -1260 0
-685 -1333 0
-686 -1334 0
-687 -1335 0
-688 -1336 0
-689 -1337 0
-690 -1338 0
-691 -1339 0
-692 -1340 0
-693 -1341 0
-685 -1405 0
-686 -1406 0
-687 -1407 0
-688 -1408 0
-689 -1409 0
-690 -1410 0
-691 -1411 0
-692 -1412 0
-693 -1413 0
-685 -1504 0
-686 -1505 0
-687 -1506 0
-688 -1507 0
-689 -1508 0
-690 -1509 0
-691 -1510 0
-692 -1511 0
-693 -1512 0
-685 -1585 0
-686 -1586 0
-687 -1587 0
-688 -1588 0
-689 -1589 0
-690 -1590 0
-691 -1591 0
-692 -1592 0
-693 -1593 0
-685 -1630 0
-686 -1631 0
-687 -1632 0
-688 -1633 0
-689 -1634 0
-690 -1635 0
-691 -1636 0
-692 -1637 0
-693 -1638 0
-685 -1720 0
-686 -1721 0
-687 -1722 0
-688 -1723 0
-689 -1724 0
-690 -1725 0
-691 -1726 0
-692 -1727 0
-693 -1728 0
-685 -1774 0
-686 -1775 0
-687 -1776 0
-688 -1777 0
-689 -1778 0
-690 -1779 0
-691 -1780 0
-692 -1781 0
-693 -1782 0
-685 -2035 0
-686 -2036 0
-687 -2037 0
-688 -2038 0
-689 -2039 0
-690 -2040 0
-691 -2041 0
-692 -2042 0
-693 -2043 0
-685 -2116 0
-686 -2117 0
-687 -2118 0
-688 -2119 0
-689 -2120 0
-690 -2121 0
-691 -2122 0
-692 -2123 0
-693 -2124 0
-694 -1018 0
-695 -1019 0
-696 -1020 0
-697 -1021 0
-698 -1022 0
-699 -1023 0
-700 -1024 0
-701 -1025 0
-702 -1026 0
-694 -1117 0
-695 -1118 0
-696 -1119 0
-697 -1120 0
-698 -1121 0
-699 -1122 0
-700 -1123 0
-701 -1124 0
-702 -1125 0
-694 -1198 0
-695 -1199 0
-696 -1200 0
-697 -1201 0
-698 -1202 0
-699 -1203 0
-700 -1204 0
-701 -1205 0
-702 -1206 0
-694 -1513 0
-695 -1514 0
-696 -1515 0
-697 -1516 0
-698 -1517 0
-699 -1518 0
-700 -1519 0
-701 -1520 0
-702 -1521 0
-694 -1576 0
-695 -1577 0
-696 -1578 0
-697 -1579 0
-698 -1580 0
-699 -1581 0
-700 -1582 0
-701 -1583 0
-702 -1584 0
-694 -1621 0
-695 -1622 0
-696 -1623 0
-697 -1624 0
-698 -1625 0
-699 -1626 0
-700 -1627 0
-701 -1628 0
-702 -1629 0
-694 -1711 0
-695 -1712 0
-696 -1713 0
-697 -1714 0
-698 -1715 0
-699 -1716 0
-700 -1717 0
-701 -1718 0
-702 -1719 0
-694 -1783 0
-695 -1784 0
-696 -1785 0
-697 -1786 0
-698 -1787 0
-699 -1788 0
-700 -1789 0
-701 -1790 0
-702 -1791 0
-694 -1900 0
-695 -1901 0
-696 -1902 0
-697 -1903 0
-698 -1904 0
-699 -1905 0
-700 -1906 0
-701 -1907 0
-702 -1908 0
-694 -2242 0
-695 -2243 0
-696 -2244 0
-697 -2245 0
-698 -2246 0
-699 -2247 0
-700 -2248 0
-701 -2249 0
-702 -2250 0
-703 -1171 0
-704 -1172 0
-705 -1173 0
-706 -1174 0
-707 -1175 0
-708 -1176 0
-709 -1177 0
-710 -1178 0
-711 -1179 0
-703 -1198 0
-704 -1199 0
-705 -1200 0
-706 -1201 0
-707 -1202 0
-708 -1203 0
-709 -1204 0
-710 -1205 0
-711 -1206 0
-703 -1252 0
-704 -1253 0
-705 -1254 0
-706 -1255 0
-707 -1256 0
-708 -1257 0
-709 -1258 0
-710 -1259 0
-711 -1260 0
-703 -1306 0
-704 -1307 0
-705 -1308 0
-706 -1309 0
-707 -1310 0
-708 -1311 0
-709 -1312 0
-710 -1313 0
-711 -1314 0
-703 -1414 0
-704 -1415 0
-705 -1416 0
-706 -1417 0
-707 -1418 0
-708 -1419 0
-709 -1420 0
-710 -1421 0
-711 -1422 0
-703 -1693 0
-704 -1694 0
-705 -1695 0
-706 -1696 0
-707 -1697 0
-708 -1698 0
-709 -1699 0
-710 -1700 0
-711 -1701 0
-703 -1720 0
-704 -1721 0
-705 -1722 0
-706 -1723 0
-707 -1724 0
-708 -1725 0
-709 -1726 0
-710 -1727 0
-711 -1728 0
-703 -2026 0
-704 -2027 0
-705 -2028 0
-706 -2029 0
-707 -2030 0
-708 -2031 0
-709 -2032 0
-710 -2033 0
-711 -2034 0
-703 -2062 0
-704 -2063 0
-705 -2064 0
-706 -2065 0
-707 -2066 0
-708 -2067 0
-709 -2068 0
-710 -2069 0
-711 -2070 0
-703 -2215 0
-704 -2216 0
-705 -2217 0
-706 -2218 0
-707 -2219 0
-708 -2220 0
-709 -2221 0
-710 -2222 0
-711 -2223 0
-712 -1018 0
-713 -1019 0
-714 -1020 0
-715 -1021 0
-716 -1022 0
-717 -1023 0
-718 -1024 0
-719 -1025 0
-720 -1026 0
-712 -1090 0
-713 -1091 0
-714 -1092 0
-715 -1093 0
-716 -1094 0
-717 -1095 0
-718 -1096 0
-719 -1097 0
-720 -1098 0
-712 -1207 0
-713 -1208 0
-714 -1209 0
-715 -1210 0
-716 -1211 0
-717 -1212 0
-718 -1213 0
-719 -1214 0
-720 -1215 0
-712 -1378 0
-713 -1379 0
-714 -1380 0
-715 -1381 0
-716 -1382 0
-717 -1383 0
-718 -1384 0
-719 -1385 0
-720 -1386 0
-712 -1405 0
-713 -1406 0
-714 -1407 0
-715 -1408 0
-716 -1409 0
-717 -1410 0
-718 -1411 0
-719 -1412 0
-720 -1413 0
-712 -1684 0
-713 -1685 0
-714 -1686 0
-715 -1687 0
-716 -1688 0
-717 -1689 0
-718 -1690 0
-719 -1691 0
-720 -1692 0
-712 -1711 0
-713 -1712 0
-714 -1713 0
-715 -1714 0
-716 -1715 0
-717 -1716 0
-718 -1717 0
-719 -1718 0
-720 -1719 0
-712 -1846 0
-713 -1847 0
-714 -1848 0
-715 -1849 0
-716 -1850 0
-717 -1851 0
-718 -1852 0
-719 -1853 0
-720 -1854 0
-712 -2008 0
-713 -2009 0
-714 -2010 0
-715 -2011 0
-716 -2012 0
-717 -2013 0
-718 -2014 0
-719 -2015 0
-720 -2016 0
-712 -2233 0
-713 -2234 0
-714 -2235 0
-715 -2236 0
-716 -2237 0
-717 -2238 0
-718 -2239 0
-719 -2240 0
-720 -2241 0
-721 -766 0
-722 -767 0
-723 -768 0
-724 -769 0
-725 -770 0
-726 -771 0
-727 -772 0
-728 -773 0
-729 -774 0
-721 -1027 0
-722 -1028 0
-723 -1029 0
-724 -1030 0
-725 -1031 0
-726 -1032 0
-727 -1033 0
-728 -1034 0
-729 -1035 0
-721 -1036 0
-722 -1037 0
-723 -1038 0
-724 -1039 0
-725 -1040 0
-726 -1041 0
-727 -1042 0
-728 -1043 0
-729 -1044 0
-721 -1090 0
-722 -1091 0
-723 -1092 0
-724 -1093 0
-725 -1094 0
-726 -1095 0
-727 -1096 0
-728 -1097 0
-729 -1098 0
-721 -1117 0
-722 -1118 0
-723 -1119 0
-724 -1120 0
-725 -1121 0
-726 -1122 0
-727 -1123 0
-728 -1124 0
-729 -1125 0
-721 -1261 0
-722 -1262 0
-723 -1263 0
-724 -1264 0
-725 -1265 0
-726 -1266 0
-727 -1267 0
-728 -1268 0
-729 -1269 0
-721 -1306 0
-722 -1307 0
-723 -1308 0
-724 -1309 0
-725 -1310 0
-726 -1311 0
-727 -1312 0
-728 -1313 0
-729 -1314 0
-721 -1333 0
-722 -1334 0
-723 -1335 0
-724 -1336 0
-725 -1337 0
-726 -1338 0
-727 -1339 0
-728 -1340 0
-729 -1341 0
-721 -1468 0
-722 -1469 0
-723 -1470 0
-724 -1471 0
-725 -1472 0
-726 -1473 0
-727 -1474 0
-728 -1475 0
-729 -1476 0
-721 -1477 0
-722 -1478 0
-723 -1479 0
-724 -1480 0
-725 -1481 0
-726 -1482 0
-727 -1483 0
-728 -1484 0
-729 -1485 0
-721 -1657 0
-722 -1658 0
-723 -1659 0
-724 -1660 0
-725 -1661 0
-726 -1662 0
-727 -1663 0
-728 -1664 0
-729 -1665 0
-721 -1666 0
-722 -1667 0
-723 -1668 0
-724 -1669 0
-725 -1670 0
-726 -1671 0
-727 -1672 0
-728 -1673 0
-729 -1674 0
-721 -1873 0
-722 -1874 0
-723 -1875 0
-724 -1876 0
-725 -1877 0
-726 -1878 0
-727 -1879 0
-728 -1880 0
-729 -1881 0
-721 -1891 0
-722 -1892 0
-723 -1893 0
-724 -1894 0
-725 -1895 0
-726 -1896 0
-727 -1897 0
-728 -1898 0
-729 -1899 0
-721 -2089 0
-722 -2090 0
-723 -2091 0
-724 -2092 0
-725 -2093 0
-726 -2094 0
-727 -2095 0
-728 -2096 0
-729 -2097 0
-721 -2107 0
-722 -2108 0
-723 -2109 0
-724 -2110 0
-725 -2111 0
-726 -2112 0
-727 -2113 0
-728 -2114 0
-729 -2115 0
-730 -811 0
-731 -812 0
-732 -813 0
-733 -814 0
-734 -815 0
-735 -816 0
-736 -817 0
-737 -818 0
-738 -819 0
-730 -847 0
-731 -848 0
-732 -849 0
-733 -850 0
-734 -851 0
-735 -852 0
-736 -853 0
-737 -854 0
-738 -855 0
-730 -865 0
-731 -866 0
-732 -867 0
-733 -868 0
-734 -869 0
-735 -870 0
-736 -871 0
-737 -872 0
-738 -873 0
-730 -874 0
-731 -875 0
-732 -876 0
-733 -877 0
-734 -878 0
-735 -879 0
-736 -880 0
-737 -881 0
-738 -882 0
-730 -1054 0
-731 -1055 0
-732 -1056 0
-733 -1057 0
-734 -1058 0
-735 -1059 0
-736 -1060 0
-737 -1061 0
-738 -1062 0
-730 -1153 0
-731 -1154 0
-732 -1155 0
-733 -1156 0
-734 -1157 0
-735 -1158 0
-736 -1159 0
-737 -1160 0
-738 -1161 0
-730 -1297 0
-731 -1298 0
-732 -1299 0
-733 -1300 0
-734 -1301 0
-735 -1302 0
-736 -1303 0
-737 -1304 0
-738 -1305 0
-730 -1342 0
-731 -1343 0
-732 -1344 0
-733 -1345 0
-734 -1346 0
-735 -1347 0
-736 -1348 0
-737 -1349 0
-738 -1350 0
-730 -1621 0
-731 -1622 0
-732 -1623 0
-733 -1624 0
-734 -1625 0
-735 -1626 0
-736 -1627 0
-737 -1628 0
-738 -1629 0
-730 -1648 0
-731 -1649 0
-732 -1650 0
-733 -1651 0
-734 -1652 0
-735 -1653 0
-736 -1654 0
-737 -1655 0
-738 -1656 0
-730 -1666 0
-731 -1667 0
-732 -1668 0
-733 -1669 0
-734 -1670 0
-735 -1671 0
-736 -1672 0
-737 -1673 0
-738 -1674 0
-730 -1873 0
-731 -1874 0
-732 -1875 0
-733 -1876 0
-734 -1877 0
-735 -1878 0
-736 -1879 0
-737 -1880 0
-738 -1881 0
-730 -1972 0
-731 -1973 0
-732 -1974 0
-733 -1975 0
-734 -1976 0
-735 -1977 0
-736 -1978 0
-737 -1979 0
-738 -1980 0
-730 -2062 0
-731 -2063 0
-732 -2064 0
-733 -2065 0
-734 -2066 0
-735 -2067 0
-736 -2068 0
-737 -2069 0
-738 -2070 0
-730 -2377 0
-731 -2378 0
-732 -2379 0
-733 -2380 0
-734 -2381 0
-735 -2382 0
-736 -2383 0
-737 -2384 0
-738 -2385 0
-730 -2584 0
-731 -2585 0
-732 -2586 0
-733 -2587 0
-734 -2588 0
-735 -2589 0
-736 -2590 0
-737 -2591 0
-738 -2592 0
-730 -2746 0
-731 -2747 0
-732 -2748 0
-733 -2749 0
-734 -2750 0
-735 -2751 0
-736 -2752 0
-737 -2753 0
-738 -2754 0
-730 -2827 0
-731 -2828 0
-732 -2829 0
-733 -2830 0
-734 -2831 0
-735 -2832 0
-736 -2833 0
-737 -2834 0
-738 -2835 0
-739 -802 0
-740 -803 0
-741 -804 0
-742 -805 0
-743 -806 0
-744 -807 0
-745 -808 0
-746 -809 0
-747 -810 0
-739 -838 0
-740 -839 0
-741 -840 0
-742 -841 0
-743 -842 0
-744 -843 0
-745 -844 0
-746 -845 0
-747 -846 0
-739 -856 0
-740 -857 0
-741 -858 0
-742 -859 0
-743 -860 0
-744 -861 0
-745 -862 0
-746 -863 0
-747 -864 0
-739 -883 0
-740 -884 0
-741 -885 0
-742 -886 0
-743 -887 0
-744 -888 0
-745 -889 0
-746 -890 0
-747 -891 0
-739 -1054 0
-740 -1055 0
-741 -1056 0
-742 -1057 0
-743 -1058 0
-744 -1059 0
-745 -1060 0
-746 -1061 0
-747 -1062 0
-739 -1081 0
-740 -1082 0
-741 -1083 0
-742 -1084 0
-743 -1085 0
-744 -1086 0
-745 -1087 0
-746 -1088 0
-747 -1089 0
-739 -1126 0
-740 -1127 0
-741 -1128 0
-742 -1129 0
-743 -1130 0
-744 -1131 0
-745 -1132 0
-746 -1133 0
-747 -1134 0
-739 -1360 0
-740 -1361 0
-741 -1362 0
-742 -1363 0
-743 -1364 0
-744 -1365 0
-745 -1366 0
-746 -1367 0
-747 -1368 0
-739 -1630 0
-740 -1631 0
-741 -1632 0
-742 -1633 0
-743 -1634 0
-744 -1635 0
-745 -1636 0
-746 -1637 0
-747 -1638 0
-739 -1639 0
-740 -1640 0
-741 -1641 0
-742 -1642 0
-743 -1643 0
-744 -1644 0
-745 -1645 0
-746 -1646 0
-747 -1647 0
-739 -1657 0
-740 -1658 0
-741 -1659 0
-742 -1660 0
-743 -1661 0
-744 -1662 0
-745 -1663 0
-746 -1664 0
-747 -1665 0
-739 -1846 0
-740 -1847 0
-741 -1848 0
-742 -1849 0
-743 -1850 0
-744 -1851 0
-745 -1852 0
-746 -1853 0
-747 -1854 0
-739 -2089 0
-740 -2090 0
-741 -2091 0
-742 -2092 0
-743 -2093 0
-744 -2094 0
-745 -2095 0
-746 -2096 0
-747 -2097 0
-739 -2188 0
-740 -2189 0
-741 -2190 0
-742 -2191 0
-743 -2192 0
-744 -2193 0
-745 -2194 0
-746 -2195 0
-747 -2196 0
-739 -2314 0
-740 -2315 0
-741 -2316 0
-742 -2317 0
-743 -2318 0
-744 -2319 0
-745 -2320 0
-746 -2321 0
-747 -2322 0
-739 -2629 0
-740 -2630 0
-741 -2631 0
-742 -2632 0
-743 -2633 0
-744 -2634 0
-745 -2635 0
-746 -2636 0
-747 -2637 0
-739 -2773 0
-740 -2774 0
-741 -2775 0
-742 -2776 0
-743 -2777 0
-744 -2778 0
-745 -2779 0
-746 -2780 0
-747 -2781 0
-739 -2854 0
-740 -2855 0
-741 -2856 0
-742 -2857 0
-743 -2858 0
-744 -2859 0
-745 -2860 0
-746 -2861 0
-747 -2862 0
-748 -829 0
-749 -830 0
-750 -831 0
-751 -832 0
-752 -833 0
-753 -834 0
-754 -835 0
-755 -836 0
-756 -837 0
-748 -838 0
-749 -839 0
-750 -840 0
-751 -841 0
-752 -842 0
-753 -843 0
-754 -844 0
-755 -845 0
-756 -846 0
-748 -856 0
-749 -857 0
-750 -858 0
-751 -859 0
-752 -860 0
-753 -861 0
-754 -862 0
-755 -863 0
-756 -864 0
-748 -892 0
-749 -893 0
-750 -894 0
-751 -895 0
-752 -896 0
-753 -897 0
-754 -898 0
-755 -899 0
-756 -900 0
-748 -1045 0
-749 -1046 0
-750 -1047 0
-751 -1048 0
-752 -1049 0
-753 -1050 0
-754 -1051 0
-755 -1052 0
-756 -1053 0
-748 -1126 0
-749 -1127 0
-750 -1128 0
-751 -1129 0
-752 -1130 0
-753 -1131 0
-754 -1132 0
-755 -1133 0
-756 -1134 0
-748 -1486 0
-749 -1487 0
-750 -1488 0
-751 -1489 0
-752 -1490 0
-753 -1491 0
-754 -1492 0
-755 -1493 0
-756 -1494 0
-748 -1522 0
-749 -1523 0
-750 -1524 0
-751 -1525 0
-752 -1526 0
-753 -1527 0
-754 -1528 0
-755 -1529 0
-756 -1530 0
-748 -1657 0
-749 -1658 0
-750 -1659 0
-751 -1660 0
-752 -1661 0
-753 -1662 0
-754 -1663 0
-755 -1664 0
-756 -1665 0
-748 -1774 0
-749 -1775 0
-750 -1776 0
-751 -1777 0
-752 -1778 0
-753 -1779 0
-754 -1780 0
-755 -1781 0
-756 -1782 0
-748 -1846 0
-749 -1847 0
-750 -1848 0
-751 -1849 0
-752 -1850 0
-753 -1851 0
-754 -1852 0
-755 -1853 0
-756 -1854 0
-748 -1882 0
-749 -1883 0
-750 -1884 0
-751 -1885 0
-752 -1886 0
-753 -1887 0
-754 -1888 0
-755 -1889 0
-756 -1890 0
-748 -1891 0
-749 -1892 0
-750 -1893 0
-751 -1894 0
-752 -1895 0
-753 -1896 0
-754 -1897 0
-755 -1898 0
-756 -1899 0
-748 -2071 0
-749 -2072 0
-750 -2073 0
-751 -2074 0
-752 -2075 0
-753 -2076 0
-754 -2077 0
-755 -2078 0
-756 -2079 0
-748 -2422 0
-749 -2423 0
-750 -2424 0
-751 -2425 0
-752 -2426 0
-753 -2427 0
-754 -2428 0
-755 -2429 0
-756 -2430 0
-748 -2575 0
-749 -2576 0
-750 -2577 0
-751 -2578 0
-752 -2579 0
-753 -2580 0
-754 -2581 0
-755 -2582 0
-756 -2583 0
-748 -2773 0
-749 -2774 0
-750 -2775 0
-751 -2776 0
-752 -2777 0
-753 -2778 0
-754 -2779 0
-755 -2780 0
-756 -2781 0
-748 -2809 0
-749 -2810 0
-750 -2811 0
-751 -2812 0
-752 -2813 0
-753 -2814 0
-754 -2815 0
-755 -2816 0
-756 -2817 0
-757 -820 0
-758 -821 0
-759 -822 0
-760 -823 0
-761 -824 0
-762 -825 0
-763 -826 0
-764 -827 0
-765 -828 0
-757 -847 0
-758 -848 0
-759 -849 0
-760 -850 0
-761 -851 0
-762 -852 0
-763 -853 0
-764 -854 0
-765 -855 0
-757 -865 0
-758 -866 0
-759 -867 0
-760 -868 0
-761 -869 0
-762 -870 0
-763 -871 0
-764 -872 0
-765 -873 0
-757 -901 0
-758 -902 0
-759 -903 0
-760 -904 0
-761 -905 0
-762 -906 0
-763 -907 0
-764 -908 0
-765 -909 0
-757 -1270 0
-758 -1271 0
-759 -1272 0
-760 -1273 0
-761 -1274 0
-762 -1275 0
-763 -1276 0
-764 -1277 0
-765 -1278 0
-757 -1342 0
-758 -1343 0
-759 -1344 0
-760 -1345 0
-761 -1346 0
-762 -1347 0
-763 -1348 0
-764 -1349 0
-765 -1350 0
-757 -1495 0
-758 -1496 0
-759 -1497 0
-760 -1498 0
-761 -1499 0
-762 -1500 0
-763 -1501 0
-764 -1502 0
-765 -1503 0
-757 -1531 0
-758 -1532 0
-759 -1533 0
-760 -1534 0
-761 -1535 0
-762 -1536 0
-763 -1537 0
-764 -1538 0
-765 -1539 0
-757 -1666 0
-758 -1667 0
-759 -1668 0
-760 -1669 0
-761 -1670 0
-762 -1671 0
-763 -1672 0
-764 -1673 0
-765 -1674 0
-757 -1783 0
-758 -1784 0
-759 -1785 0
-760 -1786 0
-761 -1787 0
-762 -1788 0
-763 -1789 0
-764 -1790 0
-765 -1791 0
-757 -1855 0
-758 -1856 0
-759 -1857 0
-760 -1858 0
-761 -1859 0
-762 -1860 0
-763 -1861 0
-764 -1862 0
-765 -1863 0
-757 -2062 0
-758 -2063 0
-759 -2064 0
-760 -2065 0
-761 -2066 0
-762 -2067 0
-763 -2068 0
-764 -2069 0
-765 -2070 0
-757 -2098 0
-758 -2099 0
-759 -2100 0
-760 -2101 0
-761 -2102 0
-762 -2103 0
-763 -2104 0
-764 -2105 0
-765 -2106 0
-757 -2107 0
-758 -2108 0
-759 -2109 0
-760 -2110 0
-761 -2111 0
-762 -2112 0
-763 -2113 0
-764 -2114 0
-765 -2115 0
-757 -2431 0
-758 -2432 0
-759 -2433 0
-760 -2434 0
-761 -2435 0
-762 -2436 0
-763 -2437 0
-764 -2438 0
-765 -2439 0
-757 -2575 0
-758 -2576 0
-759 -2577 0
-760 -2578 0
-761 -2579 0
-762 -2580 0
-763 -2581 0
-764 -2582 0
-765 -2583 0
-757 -2746 0
-758 -2747 0
-759 -2748 0
-760 -2749 0
-761 -2750 0
-762 -2751 0
-763 -2752 0
-764 -2753 0
-765 -2754 0
-757 -2872 0
-758 -2873 0
-759 -2874 0
-760 -2875 0
-761 -2876 0
-762 -2877 0
-763 -2878 0
-764 -2879 0
-765 -2880 0
-766 -1018 0
-767 -1019 0
-768 -1020 0
-769 -1021 0
-770 -1022 0
-771 -1023 0
-772 -1024 0
-773 -1025 0
-774 -1026 0
-766 -1135 0
-767 -1136 0
-768 -1137 0
-769 -1138 0
-770 -1139 0
-771 -1140 0
-772 -1141 0
-773 -1142 0
-774 -1143 0
-766 -1171 0
-767 -1172 0
-768 -1173 0
-769 -1174 0
-770 -1175 0
-771 -1176 0
-772 -1177 0
-773 -1178 0
-774 -1179 0
-766 -1252 0
-767 -1253 0
-768 -1254 0
-769 -1255 0
-770 -1256 0
-771 -1257 0
-772 -1258 0
-773 -1259 0
-774 -1260 0
-766 -1351 0
-767 -1352 0
-768 -1353 0
-769 -1354 0
-770 -1355 0
-771 -1356 0
-772 -1357 0
-773 -1358 0
-774 -1359 0
-766 -1378 0
-767 -1379 0
-768 -1380 0
-769 -1381 0
-770 -1382 0
-771 -1383 0
-772 -1384 0
-773 -1385 0
-774 -1386 0
-766 -1441 0
-767 -1442 0
-768 -1443 0
-769 -1444 0
-770 -1445 0
-771 -1446 0
-772 -1447 0
-773 -1448 0
-774 -1449 0
-766 -1504 0
-767 -1505 0
-768 -1506 0
-769 -1507 0
-770 -1508 0
-771 -1509 0
-772 -1510 0
-773 -1511 0
-774 -1512 0
-766 -1513 0
-767 -1514 0
-768 -1515 0
-769 -1516 0
-770 -1517 0
-771 -1518 0
-772 -1519 0
-773 -1520 0
-774 -1521 0
-766 -1621 0
-767 -1622 0
-768 -1623 0
-769 -1624 0
-770 -1625 0
-771 -1626 0
-772 -1627 0
-773 -1628 0
-774 -1629 0
-766 -1630 0
-767 -1631 0
-768 -1632 0
-769 -1633 0
-770 -1634 0
-771 -1635 0
-772 -1636 0
-773 -1637 0
-774 -1638 0
-766 -1774 0
-767 -1775 0
-768 -1776 0
-769 -1777 0
-770 -1778 0
-771 -1779 0
-772 -1780 0
-773 -1781 0
-774 -1782 0
-766 -1783 0
-767 -1784 0
-768 -1785 0
-769 -1786 0
-770 -1787 0
-771 -1788 0
-772 -1789 0
-773 -1790 0
-774 -1791 0
-766 -1846 0
-767 -1847 0
-768 -1848 0
-769 -1849 0
-770 -1850 0
-771 -1851 0
-772 -1852 0
-773 -1853 0
-774 -1854 0
-766 -1855 0
-767 -1856 0
-768 -1857 0
-769 -1858 0
-770 -1859 0
-771 -1860 0
-772 -1861 0
-773 -1862 0
-774 -1863 0
-766 -1972 0
-767 -1973 0
-768 -1974 0
-769 -1975 0
-770 -1976 0
-771 -1977 0
-772 -1978 0
-773 -1979 0
-774 -1980 0
-766 -2008 0
-767 -2009 0
-768 -2010 0
-769 -2011 0
-770 -2012 0
-771 -2013 0
-772 -2014 0
-773 -2015 0
-774 -2016 0
-766 -2062 0
-767 -2063 0
-768 -2064 0
-769 -2065 0
-770 -2066 0
-771 -2067 0
-772 -2068 0
-773 -2069 0
-774 -2070 0
-766 -2071 0
-767 -2072 0
-768 -2073 0
-769 -2074 0
-770 -2075 0
-771 -2076 0
-772 -2077 0
-773 -2078 0
-774 -2079 0
-766 -2188 0
-767 -2189 0
-768 -2190 0
-769 -2191 0
-770 -2192 0
-771 -2193 0
-772 -2194 0
-773 -2195 0
-774 -2196 0
-766 -2215 0
-767 -2216 0
-768 -2217 0
-769 -2218 0
-770 -2219 0
-771 -2220 0
-772 -2221 0
-773 -2222 0
-774 -2223 0
-766 -2251 0
-767 -2252 0
-768 -2253 0
-769 -2254 0
-770 -2255 0
-771 -2256 0
-772 -2257 0
-773 -2258 0
-774 -2259 0
-766 -2260 0
-767 -2261 0
-768 -2262 0
-769 -2263 0
-770 -2264 0
-771 -2265 0
-772 -2266 0
-773 -2267 0
-774 -2268 0
-766 -2269 0
-767 -2270 0
-768 -2271 0
-769 -2272 0
-770 -2273 0
-771 -2274 0
-772 -2275 0
-773 -2276 0
-774 -2277 0
-766 -2287 0
-767 -2288 0
-768 -2289 0
-769 -2290 0
-770 -2291 0
-771 -2292 0
-772 -2293 0
-773 -2294 0
-774 -2295 0
-766 -2332 0
-767 -2333 0
-768 -2334 0
-769 -2335 0
-770 -2336 0
-771 -2337 0
-772 -2338 0
-773 -2339 0
-774 -2340 0
-766 -2341 0
-767 -2342 0
-768 -2343 0
-769 -2344 0
-770 -2345 0
-771 -2346 0
-772 -2347 0
-773 -2348 0
-774 -2349 0
-766 -2350 0
-767 -2351 0
-768 -2352 0
-769 -2353 0
-770 -2354 0
-771 -2355 0
-772 -2356 0
-773 -2357 0
-774 -2358 0
-766 -2395 0
-767 -2396 0
-768 -2397 0
-769 -2398 0
-770 -2399 0
-771 -2400 0
-772 -2401 0
-773 -2402 0
-774 -2403 0
-766 -2404 0
-767 -2405 0
-768 -2406 0
-769 -2407 0
-770 -2408 0
-771 -2409 0
-772 -2410 0
-773 -2411 0
-774 -2412 0
-766 -2575 0
-767 -2576 0
-768 -2577 0
-769 -2578 0
-770 -2579 0
-771 -2580 0
-772 -2581 0
-773 -2582 0
-774 -2583 0
-766 -2584 0
-767 -2585 0
-768 -2586 0
-769 -2587 0
-770 -2588 0
-771 -2589 0
-772 -2590 0
-773 -2591 0
-774 -2592 0
-766 -2629 0
-767 -2630 0
-768 -2631 0
-769 -2632 0
-770 -2633 0
-771 -2634 0
-772 -2635 0
-773 -2636 0
-774 -2637 0
-766 -2746 0
-767 -2747 0
-768 -2748 0
-769 -2749 0
-770 -2750 0
-771 -2751 0
-772 -2752 0
-773 -2753 0
-774 -2754 0
-766 -2773 0
-767 -2774 0
-768 -2775 0
-769 -2776 0
-770 -2777 0
-771 -2778 0
-772 -2779 0
-773 -2780 0
-774 -2781 0
-766 -2809 0
-767 -2810 0
-768 -2811 0
-769 -2812 0
-770 -2813 0
-771 -2814 0
-772 -2815 0
-773 -2816 0
-774 -2817 0
-766 -2827 0
-767 -2828 0
-768 -2829 0
-769 -2830 0
-770 -2831 0
-771 -2832 0
-772 -2833 0
-773 -2834 0
-774 -2835 0
-766 -2854 0
-767 -2855 0
-768 -2856 0
-769 -2857 0
-770 -2858 0
-771 -2859 0
-772 -2860 0
-773 -2861 0
-774 -2862 0
-766 -2872 0
-767 -2873 0
-768 -2874 0
-769 -2875 0
-770 -2876 0
-771 -2877 0
-772 -2878 0
-773 -2879 0
-774 -2880 0
-775 -811 0
-776 -812 0
-777 -813 0
-778 -814 0
-779 -815 0
-780 -816 0
-781 -817 0
-782 -818 0
-783 -819 0
-775 -820 0
-776 -821 0
-777 -822 0
-778 -823 0
-779 -824 0
-780 -825 0
-781 -826 0
-782 -827 0
-783 -828 0
-775 -874 0
-776 -875 0
-777 -876 0
-778 -877 0
-779 -878 0
-780 -879 0
-781 -880 0
-782 -881 0
-783 -882 0
-775 -901 0
-776 -902 0
-777 -903 0
-778 -904 0
-779 -905 0
-780 -906 0
-781 -907 0
-782 -908 0
-783 -909 0
-775 -1045 0
-776 -1046 0
-777 -1047 0
-778 -1048 0
-779 -1049 0
-780 -1050 0
-781 -1051 0
-782 -1052 0
-783 -1053 0
-775 -1099 0
-776 -1100 0
-777 -1101 0
-778 -1102 0
-779 -1103 0
-780 -1104 0
-781 -1105 0
-782 -1106 0
-783 -1107 0
-775 -1153 0
-776 -1154 0
-777 -1155 0
-778 -1156 0
-779 -1157 0
-780 -1158 0
-781 -1159 0
-782 -1160 0
-783 -1161 0
-775 -1495 0
-776 -1496 0
-777 -1497 0
-778 -1498 0
-779 -1499 0
-780 -1500 0
-781 -1501 0
-782 -1502 0
-783 -1503 0
-775 -1621 0
-776 -1622 0
-777 -1623 0
-778 -1624 0
-779 -1625 0
-780 -1626 0
-781 -1627 0
-782 -1628 0
-783 -1629 0
-775 -1855 0
-776 -1856 0
-777 -1857 0
-778 -1858 0
-779 -1859 0
-780 -1860 0
-781 -1861 0
-782 -1862 0
-783 -1863 0
-775 -1864 0
-776 -1865 0
-777 -1866 0
-778 -1867 0
-779 -1868 0
-780 -1869 0
-781 -1870 0
-782 -1871 0
-783 -1872 0
-775 -1873 0
-776 -1874 0
-777 -1875 0
-778 -1876 0
-779 -1877 0
-780 -1878 0
-781 -1879 0
-782 -1880 0
-783 -1881 0
-775 -2107 0
-776 -2108 0
-777 -2109 0
-778 -2110 0
-779 -2111 0
-780 -2112 0
-781 -2113 0
-782 -2114 0
-783 -2115 0
-775 -2215 0
-776 -2216 0
-777 -2217 0
-778 -2218 0
-779 -2219 0
-780 -2220 0
-781 -2221 0
-782 -2222 0
-783 -2223 0
-775 -2323 0
-776 -2324 0
-777 -2325 0
-778 -2326 0
-779 -2327 0
-780 -2328 0
-781 -2329 0
-782 -2330 0
-783 -2331 0
-775 -2629 0
-776 -2630 0
-777 -2631 0
-778 -2632 0
-779 -2633 0
-780 -2634 0
-781 -2635 0
-782 -2636 0
-783 -2637 0
-775 -2827 0
-776 -2828 0
-777 -2829 0
-778 -2830 0
-779 -2831 0
-780 -2832 0
-781 -2833 0
-782 -2834 0
-783 -2835 0
-775 -2872 0
-776 -2873 0
-777 -2874 0
-778 -2875 0
-779 -2876 0
-780 -2877 0
-781 -2878 0
-782 -2879 0
-783 -2880 0
-784 -802 0
-785 -803 0
-786 -804 0
-787 -805 0
-788 -806 0
-789 -807 0
-790 -808 0
-791 -809 0
-792 -810 0
-784 -829 0
-785 -830 0
-786 -831 0
-787 -832 0
-788 -833 0
-789 -834 0
-790 -835 0
-791 -836 0
-792 -837 0
-784 -883 0
-785 -884 0
-786 -885 0
-787 -886 0
-788 -887 0
-789 -888 0
-790 -889 0
-791 -890 0
-792 -891 0
-784 -892 0
-785 -893 0
-786 -894 0
-787 -895 0
-788 -896 0
-789 -897 0
-790 -898 0
-791 -899 0
-792 -900 0
-784 -1270 0
-785 -1271 0
-786 -1272 0
-787 -1273 0
-788 -1274 0
-789 -1275 0
-790 -1276 0
-791 -1277 0
-792 -1278 0
-784 -1315 0
-785 -1316 0
-786 -1317 0
-787 -1318 0
-788 -1319 0
-789 -1320 0
-790 -1321 0
-791 -1322 0
-792 -1323 0
-784 -1360 0
-785 -1361 0
-786 -1362 0
-787 -1363 0
-788 -1364 0
-789 -1365 0
-790 -1366 0
-791 -1367 0
-792 -1368 0
-784 -1486 0
-785 -1487 0
-786 -1488 0
-787 -1489 0
-788 -1490 0
-789 -1491 0
-790 -1492 0
-791 -1493 0
-792 -1494 0
-784 -1630 0
-785 -1631 0
-786 -1632 0
-787 -1633 0
-788 -1634 0
-789 -1635 0
-790 -1636 0
-791 -1637 0
-792 -1638 0
-784 -1891 0
-785 -1892 0
-786 -1893 0
-787 -1894 0
-788 -1895 0
-789 -1896 0
-790 -1897 0
-791 -1898 0
-792 -1899 0
-784 -2008 0
-785 -2009 0
-786 -2010 0
-787 -2011 0
-788 -2012 0
-789 -2013 0
-790 -2014 0
-791 -2015 0
-792 -2016 0
-784 -2071 0
-785 -2072 0
-786 -2073 0
-787 -2074 0
-788 -2075 0
-789 -2076 0
-790 -2077 0
-791 -2078 0
-792 -2079 0
-784 -2080 0
-785 -2081 0
-786 -2082 0
-787 -2083 0
-788 -2084 0
-789 -2085 0
-790 -2086 0
-791 -2087 0
-792 -2088 0
-784 -2089 0
-785 -2090 0
-786 -2091 0
-787 -2092 0
-788 -2093 0
-789 -2094 0
-790 -2095 0
-791 -2096 0
-792 -2097 0
-784 -2386 0
-785 -2387 0
-786 -2388 0
-787 -2389 0
-788 -2390 0
-789 -2391 0
-790 -2392 0
-791 -2393 0
-792 -2394 0
-784 -2584 0
-785 -2585 0
-786 -2586 0
-787 -2587 0
-788 -2588 0
-789 -2589 0
-790 -2590 0
-791 -2591 0
-792 -2592 0
-784 -2809 0
-785 -2810 0
-786 -2811 0
-787 -2812 0
-788 -2813 0
-789 -2814 0
-790 -2815 0
-791 -2816 0
-792 -2817 0
-784 -2854 0
-785 -2855 0
-786 -2856 0
-787 -2857 0
-788 -2858 0
-789 -2859 0
-790 -2860 0
-791 -2861 0
-792 -2862 0
-793 -1657 0
-794 -1658 0
-795 -1659 0
-796 -1660 0
-797 -1661 0
-798 -1662 0
-799 -1663 0
-800 -1664 0
-801 -1665 0
-793 -1666 0
-794 -1667 0
-795 -1668 0
-796 -1669 0
-797 -1670 0
-798 -1671 0
-799 -1672 0
-800 -1673 0
-801 -1674 0
-793 -1873 0
-794 -1874 0
-795 -1875 0
-796 -1876 0
-797 -1877 0
-798 -1878 0
-799 -1879 0
-800 -1880 0
-801 -1881 0
-793 -1891 0
-794 -1892 0
-795 -1893 0
-796 -1894 0
-797 -1895 0
-798 -1896 0
-799 -1897 0
-800 -1898 0
-801 -1899 0
-793 -2089 0
-794 -2090 0
-795 -2091 0
-796 -2092 0
-797 -2093 0
-798 -2094 0
-799 -2095 0
-800 -2096 0
-801 -2097 0
-793 -2107 0
-794 -2108 0
-795 -2109 0
-796 -2110 0
-797 -2111 0
-798 -2112 0
-799 -2113 0
-800 -2114 0
-801 -2115 0
-802 -883 0
-803 -884 0
-804 -885 0
-805 -886 0
-806 -887 0
-807 -888 0
-808 -889 0
-809 -890 0
-810 -891 0
-802 -937 0
-803 -938 0
-804 -939 0
-805 -940 0
-806 -941 0
-807 -942 0
-808 -943 0
-809 -944 0
-810 -945 0
-802 -1108 0
-803 -1109 0
-804 -1110 0
-805 -1111 0
-806 -1112 0
-807 -1113 0
-808 -1114 0
-809 -1115 0
-810 -1116 0
-802 -1234 0
-803 -1235 0
-804 -1236 0
-805 -1237 0
-806 -1238 0
-807 -1239 0
-808 -1240 0
-809 -1241 0
-810 -1242 0
-802 -1423 0
-803 -1424 0
-804 -1425 0
-805 -1426 0
-806 -1427 0
-807 -1428 0
-808 -1429 0
-809 -1430 0
-810 -1431 0
-802 -1477 0
-803 -1478 0
-804 -1479 0
-805 -1480 0
-806 -1481 0
-807 -1482 0
-808 -1483 0
-809 -1484 0
-810 -1485 0
-802 -1612 0
-803 -1613 0
-804 -1614 0
-805 -1615 0
-806 -1616 0
-807 -1617 0
-808 -1618 0
-809 -1619 0
-810 -1620 0
-802 -1657 0
-803 -1658 0
-804 -1659 0
-805 -1660 0
-806 -1661 0
-807 -1662 0
-808 -1663 0
-809 -1664 0
-810 -1665 0
-802 -1729 0
-803 -1730 0
-804 -1731 0
-805 -1732 0
-806 -1733 0
-807 -1734 0
-808 -1735 0
-809 -1736 0
-810 -1737 0
-802 -1738 0
-803 -1739 0
-804 -1740 0
-805 -1741 0
-806 -1742 0
-807 -1743 0
-808 -1744 0
-809 -1745 0
-810 -1746 0
-802 -1801 0
-803 -1802 0
-804 -1803 0
-805 -1804 0
-806 -1805 0
-807 -1806 0
-808 -1807 0
-809 -1808 0
-810 -1809 0
-802 -1891 0
-803 -1892 0
-804 -1893 0
-805 -1894 0
-806 -1895 0
-807 -1896 0
-808 -1897 0
-809 -1898 0
-810 -1899 0
-802 -2053 0
-803 -2054 0
-804 -2055 0
-805 -2056 0
-806 -2057 0
-807 -2058 0
-808 -2059 0
-809 -2060 0
-810 -2061 0
-802 -2206 0
-803 -2207 0
-804 -2208 0
-805 -2209 0
-806 -2210 0
-807 -2211 0
-808 -2212 0
-809 -2213 0
-810 -2214 0
-802 -2359 0
-803 -2360 0
-804 -2361 0
-805 -2362 0
-806 -2363 0
-807 -2364 0
-808 -2365 0
-809 -2366 0
-810 -2367 0
-802 -2755 0
-803 -2756 0
-804 -2757 0
-805 -2758 0
-806 -2759 0
-807 -2760 0
-808 -2761 0
-809 -2762 0
-810 -2763 0
-811 -874 0
-812 -875 0
-813 -876 0
-814 -877 0
-815 -878 0
-816 -879 0
-817 -880 0
-818 -881 0
-819 -882 0
-811 -919 0
-812 -920 0
-813 -921 0
-814 -922 0
-815 -923 0
-816 -924 0
-817 -925 0
-818 -926 0
-819 -927 0
-811 -1225 0
-812 -1226 0
-813 -1227 0
-814 -1228 0
-815 -1229 0
-816 -1230 0
-817 -1231 0
-818 -1232 0
-819 -1233 0
-811 -1234 0
-812 -1235 0
-813 -1236 0
-814 -1237 0
-815 -1238 0
-816 -1239 0
-817 -1240 0
-818 -1241 0
-819 -1242 0
-811 -1324 0
-812 -1325 0
-813 -1326 0
-814 -1327 0
-815 -1328 0
-816 -1329 0
-817 -1330 0
-818 -1331 0
-819 -1332 0
-811 -1468 0
-812 -1469 0
-813 -1470 0
-814 -1471 0
-815 -1472 0
-816 -1473 0
-817 -1474 0
-818 -1475 0
-819 -1476 0
-811 -1603 0
-812 -1604 0
-813 -1605 0
-814 -1606 0
-815 -1607 0
-816 -1608 0
-817 -1609 0
-818 -1610 0
-819 -1611 0
-811 -1666 0
-812 -1667 0
-813 -1668 0
-814 -1669 0
-815 -1670 0
-816 -1671 0
-817 -1672 0
-818 -1673 0
-819 -1674 0
-811 -1729 0
-812 -1730 0
-813 -1731 0
-814 -1732 0
-815 -1733 0
-816 -1734 0
-817 -1735 0
-818 -1736 0
-819 -1737 0
-811 -1747 0
-812 -1748 0
-813 -1749 0
-814 -1750 0
-815 -1751 0
-816 -1752 0
-817 -1753 0
-818 -1754 0
-819 -1755 0
-811 -1792 0
-812 -1793 0
-813 -1794 0
-814 -1795 0
-815 -1796 0
-816 -1797 0
-817 -1798 0
-818 -1799 0
-819 -1800 0
-811 -1837 0
-812 -1838 0
-813 -1839 0
-814 -1840 0
-815 -1841 0
-816 -1842 0
-817 -1843 0
-818 -1844 0
-819 -1845 0
-811 -1999 0
-812 -2000 0
-813 -2001 0
-814 -2002 0
-815 -2003 0
-816 -2004 0
-817 -2005 0
-818 -2006 0
-819 -2007 0
-811 -2107 0
-812 -2108 0
-813 -2109 0
-814 -2110 0
-815 -2111 0
-816 -2112 0
-817 -2113 0
-818 -2114 0
-819 -2115 0
-811 -2296 0
-812 -2297 0
-813 -2298 0
-814 -2299 0
-815 -2300 0
-816 -2301 0
-817 -2302 0
-818 -2303 0
-819 -2304 0
-811 -2782 0
-812 -2783 0
-813 -2784 0
-814 -2785 0
-815 -2786 0
-816 -2787 0
-817 -2788 0
-818 -2789 0
-819 -2790 0
-820 -901 0
-821 -902 0
-822 -903 0
-823 -904 0
-824 -905 0
-825 -906 0
-826 -907 0
-827 -908 0
-828 -909 0
-820 -982 0
-821 -983 0
-822 -984 0
-823 -985 0
-824 -986 0
-825 -987 0
-826 -988 0
-827 -989 0
-828 -990 0
-820 -1162 0
-821 -1163 0
-822 -1164 0
-823 -1165 0
-824 -1166 0
-825 -1167 0
-826 -1168 0
-827 -1169 0
-828 -1170 0
-820 -1243 0
-821 -1244 0
-822 -1245 0
-823 -1246 0
-824 -1247 0
-825 -1248 0
-826 -1249 0
-827 -1250 0
-828 -1251 0
-820 -1333 0
-821 -1334 0
-822 -1335 0
-823 -1336 0
-824 -1337 0
-825 -1338 0
-826 -1339 0
-827 -1340 0
-828 -1341 0
-820 -1423 0
-821 -1424 0
-822 -1425 0
-823 -1426 0
-824 -1427 0
-825 -1428 0
-826 -1429 0
-827 -1430 0
-828 -1431 0
-820 -1666 0
-821 -1667 0
-822 -1668 0
-823 -1669 0
-824 -1670 0
-825 -1671 0
-826 -1672 0
-827 -1673 0
-828 -1674 0
-820 -1837 0
-821 -1838 0
-822 -1839 0
-823 -1840 0
-824 -1841 0
-825 -1842 0
-826 -1843 0
-827 -1844 0
-828 -1845 0
-820 -1873 0
-821 -1874 0
-822 -1875 0
-823 -1876 0
-824 -1877 0
-825 -1878 0
-826 -1879 0
-827 -1880 0
-828 -1881 0
-820 -1945 0
-821 -1946 0
-822 -1947 0
-823 -1948 0
-824 -1949 0
-825 -1950 0
-826 -1951 0
-827 -1952 0
-828 -1953 0
-820 -1990 0
-821 -1991 0
-822 -1992 0
-823 -1993 0
-824 -1994 0
-825 -1995 0
-826 -1996 0
-827 -1997 0
-828 -1998 0
-820 -1999 0
-821 -2000 0
-822 -2001 0
-823 -2002 0
-824 -2003 0
-825 -2004 0
-826 -2005 0
-827 -2006 0
-828 -2007 0
-820 -2044 0
-821 -2045 0
-822 -2046 0
-823 -2047 0
-824 -2048 0
-825 -2049 0
-826 -2050 0
-827 -2051 0
-828 -2052 0
-820 -2179 0
-821 -2180 0
-822 -2181 0
-823 -2182 0
-824 -2183 0
-825 -2184 0
-826 -2185 0
-827 -2186 0
-828 -2187 0
-820 -2413 0
-821 -2414 0
-822 -2415 0
-823 -2416 0
-824 -2417 0
-825 -2418 0
-826 -2419 0
-827 -2420 0
-828 -2421 0
-820 -2800 0
-821 -2801 0
-822 -2802 0
-823 -2803 0
-824 -2804 0
-825 -2805 0
-826 -2806 0
-827 -2807 0
-828 -2808 0
-829 -892 0
-830 -893 0
-831 -894 0
-832 -895 0
-833 -896 0
-834 -897 0
-835 -898 0
-836 -899 0
-837 -900 0
-829 -991 0
-830 -992 0
-831 -993 0
-832 -994 0
-833 -995 0
-834 -996 0
-835 -997 0
-836 -998 0
-837 -999 0
-829 -1117 0
-830 -1118 0
-831 -1119 0
-832 -1120 0
-833 -1121 0
-834 -1122 0
-835 -1123 0
-836 -1124 0
-837 -1125 0
-829 -1225 0
-830 -1226 0
-831 -1227 0
-832 -1228 0
-833 -1229 0
-834 -1230 0
-835 -1231 0
-836 -1232 0
-837 -1233 0
-829 -1369 0
-830 -1370 0
-831 -1371 0
-832 -1372 0
-833 -1373 0
-834 -1374 0
-835 -1375 0
-836 -1376 0
-837 -1377 0
-829 -1432 0
-830 -1433 0
-831 -1434 0
-832 -1435 0
-833 -1436 0
-834 -1437 0
-835 -1438 0
-836 -1439 0
-837 -1440 0
-829 -1657 0
-830 -1658 0
-831 -1659 0
-832 -1660 0
-833 -1661 0
-834 -1662 0
-835 -1663 0
-836 -1664 0
-837 -1665 0
-829 -1828 0
-830 -1829 0
-831 -1830 0
-832 -1831 0
-833 -1832 0
-834 -1833 0
-835 -1834 0
-836 -1835 0
-837 -1836 0
-829 -1981 0
-830 -1982 0
-831 -1983 0
-832 -1984 0
-833 -1985 0
-834 -1986 0
-835 -1987 0
-836 -1988 0
-837 -1989 0
-829 -2053 0
-830 -2054 0
-831 -2055 0
-832 -2056 0
-833 -2057 0
-834 -2058 0
-835 -2059 0
-836 -2060 0
-837 -2061 0
-829 -2089 0
-830 -2090 0
-831 -2091 0
-832 -2092 0
-833 -2093 0
-834 -2094 0
-835 -2095 0
-836 -2096 0
-837 -2097 0
-829 -2152 0
-830 -2153 0
-831 -2154 0
-832 -2155 0
-833 -2156 0
-834 -2157 0
-835 -2158 0
-836 -2159 0
-837 -2160 0
-829 -2197 0
-830 -2198 0
-831 -2199 0
-832 -2200 0
-833 -2201 0
-834 -2202 0
-835 -2203 0
-836 -2204 0
-837 -2205 0
-829 -2206 0
-830 -2207 0
-831 -2208 0
-832 -2209 0
-833 -2210 0
-834 -2211 0
-835 -2212 0
-836 -2213 0
-837 -2214 0
-829 -2413 0
-830 -2414 0
-831 -2415 0
-832 -2416 0
-833 -2417 0
-834 -2418 0
-835 -2419 0
-836 -2420 0
-837 -2421 0
-829 -2818 0
-830 -2819 0
-831 -2820 0
-832 -2821 0
-833 -2822 0
-834 -2823 0
-835 -2824 0
-836 -2825 0
-837 -2826 0
-838 -856 0
-839 -857 0
-840 -858 0
-841 -859 0
-842 -860 0
-843 -861 0
-844 -862 0
-845 -863 0
-846 -864 0
-838 -946 0
-839 -947 0
-840 -948 0
-841 -949 0
-842 -950 0
-843 -951 0
-844 -952 0
-845 -953 0
-846 -954 0
-838 -1072 0
-839 -1073 0
-840 -1074 0
-841 -1075 0
-842 -1076 0
-843 -1077 0
-844 -1078 0
-845 -1079 0
-846 -1080 0
-838 -1081 0
-839 -1082 0
-840 -1083 0
-841 -1084 0
-842 -1085 0
-843 -1086 0
-844 -1087 0
-845 -1088 0
-846 -1089 0
-838 -1171 0
-839 -1172 0
-840 -1173 0
-841 -1174 0
-842 -1175 0
-843 -1176 0
-844 -1177 0
-845 -1178 0
-846 -1179 0
-838 -1189 0
-839 -1190 0
-840 -1191 0
-841 -1192 0
-842 -1193 0
-843 -1194 0
-844 -1195 0
-845 -1196 0
-846 -1197 0
-838 -1243 0
-839 -1244 0
-840 -1245 0
-841 -1246 0
-842 -1247 0
-843 -1248 0
-844 -1249 0
-845 -1250 0
-846 -1251 0
-838 -1639 0
-839 -1640 0
-840 -1641 0
-841 -1642 0
-842 -1643 0
-843 -1644 0
-844 -1645 0
-845 -1646 0
-846 -1647 0
-838 -1684 0
-839 -1685 0
-840 -1686 0
-841 -1687 0
-842 -1688 0
-843 -1689 0
-844 -1690 0
-845 -1691 0
-846 -1692 0
-838 -1747 0
-839 -1748 0
-840 -1749 0
-841 -1750 0
-842 -1751 0
-843 -1752 0
-844 -1753 0
-845 -1754 0
-846 -1755 0
-838 -1765 0
-839 -1766 0
-840 -1767 0
-841 -1768 0
-842 -1769 0
-843 -1770 0
-844 -1771 0
-845 -1772 0
-846 -1773 0
-838 -1882 0
-839 -1883 0
-840 -1884 0
-841 -1885 0
-842 -1886 0
-843 -1887 0
-844 -1888 0
-845 -1889 0
-846 -1890 0
-838 -1909 0
-839 -1910 0
-840 -1911 0
-841 -1912 0
-842 -1913 0
-843 -1914 0
-844 -1915 0
-845 -1916 0
-846 -1917 0
-838 -1936 0
-839 -1937 0
-840 -1938 0
-841 -1939 0
-842 -1940 0
-843 -1941 0
-844 -1942 0
-845 -1943 0
-846 -1944 0
-838 -2053 0
-839 -2054 0
-840 -2055 0
-841 -2056 0
-842 -2057 0
-843 -2058 0
-844 -2059 0
-845 -2060 0
-846 -2061 0
-838 -2170 0
-839 -2171 0
-840 -2172 0
-841 -2173 0
-842 -2174 0
-843 -2175 0
-844 -2176 0
-845 -2177 0
-846 -2178 0
-838 -2188 0
-839 -2189 0
-840 -2190 0
-841 -2191 0
-842 -2192 0
-843 -2193 0
-844 -2194 0
-845 -2195 0
-846 -2196 0
-838 -2404 0
-839 -2405 0
-840 -2406 0
-841 -2407 0
-842 -2408 0
-843 -2409 0
-844 -2410 0
-845 -2411 0
-846 -2412 0
-838 -2449 0
-839 -2450 0
-840 -2451 0
-841 -2452 0
-842 -2453 0
-843 -2454 0
-844 -2455 0
-845 -2456 0
-846 -2457 0
-838 -2476 0
-839 -2477 0
-840 -2478 0
-841 -2479 0
-842 -2480 0
-843 -2481 0
-844 -2482 0
-845 -2483 0
-846 -2484 0
-838 -2494 0
-839 -2495 0
-840 -2496 0
-841 -2497 0
-842 -2498 0
-843 -2499 0
-844 -2500 0
-845 -2501 0
-846 -2502 0
-838 -2575 0
-839 -2576 0
-840 -2577 0
-841 -2578 0
-842 -2579 0
-843 -2580 0
-844 -2581 0
-845 -2582 0
-846 -2583 0
-838 -2611 0
-839 -2612 0
-840 -2613 0
-841 -2614 0
-842 -2615 0
-843 -2616 0
-844 -2617 0
-845 -2618 0
-846 -2619 0
-838 -2719 0
-839 -2720 0
-840 -2721 0
-841 -2722 0
-842 -2723 0
-843 -2724 0
-844 -2725 0
-845 -2726 0
-846 -2727 0
-847 -865 0
-848 -866 0
-849 -867 0
-850 -868 0
-851 -869 0
-852 -870 0
-853 -871 0
-854 -872 0
-855 -873 0
-847 -955 0
-848 -956 0
-849 -957 0
-850 -958 0
-851 -959 0
-852 -960 0
-853 -961 0
-854 -962 0
-855 -963 0
-847 -1288 0
-848 -1289 0
-849 -1290 0
-850 -1291 0
-851 -1292 0
-852 -1293 0
-853 -1294 0
-854 -1295 0
-855 -1296 0
-847 -1297 0
-848 -1298 0
-849 -1299 0
-850 -1300 0
-851 -1301 0
-852 -1302 0
-853 -1303 0
-854 -1304 0
-855 -1305 0
-847 -1378 0
-848 -1379 0
-849 -1380 0
-850 -1381 0
-851 -1382 0
-852 -1383 0
-853 -1384 0
-854 -1385 0
-855 -1386 0
-847 -1396 0
-848 -1397 0
-849 -1398 0
-850 -1399 0
-851 -1400 0
-852 -1401 0
-853 -1402 0
-854 -1403 0
-855 -1404 0
-847 -1432 0
-848 -1433 0
-849 -1434 0
-850 -1435 0
-851 -1436 0
-852 -1437 0
-853 -1438 0
-854 -1439 0
-855 -1440 0
-847 -1648 0
-848 -1649 0
-849 -1650 0
-850 -1651 0
-851 -1652 0
-852 -1653 0
-853 -1654 0
-854 -1655 0
-855 -1656 0
-847 -1693 0
-848 -1694 0
-849 -1695 0
-850 -1696 0
-851 -1697 0
-852 -1698 0
-853 -1699 0
-854 -1700 0
-855 -1701 0
-847 -1738 0
-848 -1739 0
-849 -1740 0
-850 -1741 0
-851 -1742 0
-852 -1743 0
-853 -1744 0
-854 -1745 0
-855 -1746 0
-847 -1756 0
-848 -1757 0
-849 -1758 0
-850 -1759 0
-851 -1760 0
-852 -1761 0
-853 -1762 0
-854 -1763 0
-855 -1764 0
-847 -1837 0
-848 -1838 0
-849 -1839 0
-850 -1840 0
-851 -1841 0
-852 -1842 0
-853 -1843 0
-854 -1844 0
-855 -1845 0
-847 -1936 0
-848 -1937 0
-849 -1938 0
-850 -1939 0
-851 -1940 0
-852 -1941 0
-853 -1942 0
-854 -1943 0
-855 -1944 0
-847 -1963 0
-848 -1964 0
-849 -1965 0
-850 -1966 0
-851 -1967 0
-852 -1968 0
-853 -1969 0
-854 -1970 0
-855 -1971 0
-847 -1972 0
-848 -1973 0
-849 -1974 0
-850 -1975 0
-851 -1976 0
-852 -1977 0
-853 -1978 0
-854 -1979 0
-855 -1980 0
-847 -2098 0
-848 -2099 0
-849 -2100 0
-850 -2101 0
-851 -2102 0
-852 -2103 0
-853 -2104 0
-854 -2105 0
-855 -2106 0
-847 -2125 0
-848 -2126 0
-849 -2127 0
-850 -2128 0
-851 -2129 0
-852 -2130 0
-853 -2131 0
-854 -2132 0
-855 -2133 0
-847 -2395 0
-848 -2396 0
-849 -2397 0
-850 -2398 0
-851 -2399 0
-852 -2400 0
-853 -2401 0
-854 -2402 0
-855 -2403 0
-847 -2458 0
-848 -2459 0
-849 -2460 0
-850 -2461 0
-851 -2462 0
-852 -2463 0
-853 -2464 0
-854 -2465 0
-855 -2466 0
-847 -2467 0
-848 -2468 0
-849 -2469 0
-850 -2470 0
-851 -2471 0
-852 -2472 0
-853 -2473 0
-854 -2474 0
-855 -2475 0
-847 -2494 0
-848 -2495 0
-849 -2496 0
-850 -2497 0
-851 -2498 0
-852 -2499 0
-853 -2500 0
-854 -2501 0
-855 -2502 0
-847 -2557 0
-848 -2558 0
-849 -2559 0
-850 -2560 0
-851 -2561 0
-852 -2562 0
-853 -2563 0
-854 -2564 0
-855 -2565 0
-847 -2575 0
-848 -2576 0
-849 -2577 0
-850 -2578 0
-851 -2579 0
-852 -2580 0
-853 -2581 0
-854 -2582 0
-855 -2583 0
-847 -2701 0
-848 -2702 0
-849 -2703 0
-850 -2704 0
-851 -2705 0
-852 -2706 0
-853 -2707 0
-854 -2708 0
-855 -2709 0
-856 -946 0
-857 -947 0
-858 -948 0
-859 -949 0
-860 -950 0
-861 -951 0
-862 -952 0
-863 -953 0
-864 -954 0
-856 -1216 0
-857 -1217 0
-858 -1218 0
-859 -1219 0
-860 -1220 0
-861 -1221 0
-862 -1222 0
-863 -1223 0
-864 -1224 0
-856 -1243 0
-857 -1244 0
-858 -1245 0
-859 -1246 0
-860 -1247 0
-861 -1248 0
-862 -1249 0
-863 -1250 0
-864 -1251 0
-856 -1306 0
-857 -1307 0
-858 -1308 0
-859 -1309 0
-860 -1310 0
-861 -1311 0
-862 -1312 0
-863 -1313 0
-864 -1314 0
-856 -1540 0
-857 -1541 0
-858 -1542 0
-859 -1543 0
-860 -1544 0
-861 -1545 0
-862 -1546 0
-863 -1547 0
-864 -1548 0
-856 -1612 0
-857 -1613 0
-858 -1614 0
-859 -1615 0
-860 -1616 0
-861 -1617 0
-862 -1618 0
-863 -1619 0
-864 -1620 0
-856 -1801 0
-857 -1802 0
-858 -1803 0
-859 -1804 0
-860 -1805 0
-861 -1806 0
-862 -1807 0
-863 -1808 0
-864 -1809 0
-856 -1828 0
-857 -1829 0
-858 -1830 0
-859 -1831 0
-860 -1832 0
-861 -1833 0
-862 -1834 0
-863 -1835 0
-864 -1836 0
-856 -1891 0
-857 -1892 0
-858 -1893 0
-859 -1894 0
-860 -1895 0
-861 -1896 0
-862 -1897 0
-863 -1898 0
-864 -1899 0
-856 -1945 0
-857 -1946 0
-858 -1947 0
-859 -1948 0
-860 -1949 0
-861 -1950 0
-862 -1951 0
-863 -1952 0
-864 -1953 0
-856 -1981 0
-857 -1982 0
-858 -1983 0
-859 -1984 0
-860 -1985 0
-861 -1986 0
-862 -1987 0
-863 -1988 0
-864 -1989 0
-856 -2017 0
-857 -2018 0
-858 -2019 0
-859 -2020 0
-860 -2021 0
-861 -2022 0
-862 -2023 0
-863 -2024 0
-864 -2025 0
-856 -2089 0
-857 -2090 0
-858 -2091 0
-859 -2092 0
-860 -2093 0
-861 -2094 0
-862 -2095 0
-863 -2096 0
-864 -2097 0
-856 -2296 0
-857 -2297 0
-858 -2298 0
-859 -2299 0
-860 -2300 0
-861 -2301 0
-862 -2302 0
-863 -2303 0
-864 -2304 0
-856 -2863 0
-857 -2864 0
-858 -2865 0
-859 -2866 0
-860 -2867 0
-861 -2868 0
-862 -2869 0
-863 -2870 0
-864 -2871 0
-865 -955 0
-866 -956 0
-867 -957 0
-868 -958 0
-869 -959 0
-870 -960 0
-871 -961 0
-872 -962 0
-873 -963 0
-865 -1090 0
-866 -1091 0
-867 -1092 0
-868 -1093 0
-869 -1094 0
-870 -1095 0
-871 -1096 0
-872 -1097 0
-873 -1098 0
-865 -1216 0
-866 -1217 0
-867 -1218 0
-868 -1219 0
-869 -1220 0
-870 -1221 0
-871 -1222 0
-872 -1223 0
-873 -1224 0
-865 -1432 0
-866 -1433 0
-867 -1434 0
-868 -1435 0
-869 -1436 0
-870 -1437 0
-871 -1438 0
-872 -1439 0
-873 -1440 0
-865 -1549 0
-866 -1550 0
-867 -1551 0
-868 -1552 0
-869 -1553 0
-870 -1554 0
-871 -1555 0
-872 -1556 0
-873 -1557 0
-865 -1603 0
-866 -1604 0
-867 -1605 0
-868 -1606 0
-869 -1607 0
-870 -1608 0
-871 -1609 0
-872 -1610 0
-873 -1611 0
-865 -1792 0
-866 -1793 0
-867 -1794 0
-868 -1795 0
-869 -1796 0
-870 -1797 0
-871 -1798 0
-872 -1799 0
-873 -1800 0
-865 -1873 0
-866 -1874 0
-867 -1875 0
-868 -1876 0
-869 -1877 0
-870 -1878 0
-871 -1879 0
-872 -1880 0
-873 -1881 0
-865 -2044 0
-866 -2045 0
-867 -2046 0
-868 -2047 0
-869 -2048 0
-870 -2049 0
-871 -2050 0
-872 -2051 0
-873 -2052 0
-865 -2107 0
-866 -2108 0
-867 -2109 0
-868 -2110 0
-869 -2111 0
-870 -2112 0
-871 -2113 0
-872 -2114 0
-873 -2115 0
-865 -2152 0
-866 -2153 0
-867 -2154 0
-868 -2155 0
-869 -2156 0
-870 -2157 0
-871 -2158 0
-872 -2159 0
-873 -2160 0
-865 -2179 0
-866 -2180 0
-867 -2181 0
-868 -2182 0
-869 -2183 0
-870 -2184 0
-871 -2185 0
-872 -2186 0
-873 -2187 0
-865 -2224 0
-866 -2225 0
-867 -2226 0
-868 -2227 0
-869 -2228 0
-870 -2229 0
-871 -2230 0
-872 -2231 0
-873 -2232 0
-865 -2359 0
-866 -2360 0
-867 -2361 0
-868 -2362 0
-869 -2363 0
-870 -2364 0
-871 -2365 0
-872 -2366 0
-873 -2367 0
-865 -2836 0
-866 -2837 0
-867 -2838 0
-868 -2839 0
-869 -2840 0
-870 -2841 0
-871 -2842 0
-872 -2843 0
-873 -2844 0
-874 -919 0
-875 -920 0
-876 -921 0
-877 -922 0
-878 -923 0
-879 -924 0
-880 -925 0
-881 -926 0
-882 -927 0
-874 -1072 0
-875 -1073 0
-876 -1074 0
-877 -1075 0
-878 -1076 0
-879 -1077 0
-880 -1078 0
-881 -1079 0
-882 -1080 0
-874 -1099 0
-875 -1100 0
-876 -1101 0
-877 -1102 0
-878 -1103 0
-879 -1104 0
-880 -1105 0
-881 -1106 0
-882 -1107 0
-874 -1135 0
-875 -1136 0
-876 -1137 0
-877 -1138 0
-878 -1139 0
-879 -1140 0
-880 -1141 0
-881 -1142 0
-882 -1143 0
-874 -1180 0
-875 -1181 0
-876 -1182 0
-877 -1183 0
-878 -1184 0
-879 -1185 0
-880 -1186 0
-881 -1187 0
-882 -1188 0
-874 -1234 0
-875 -1235 0
-876 -1236 0
-877 -1237 0
-878 -1238 0
-879 -1239 0
-880 -1240 0
-881 -1241 0
-882 -1242 0
-874 -1648 0
-875 -1649 0
-876 -1650 0
-877 -1651 0
-878 -1652 0
-879 -1653 0
-880 -1654 0
-881 -1655 0
-882 -1656 0
-874 -1693 0
-875 -1694 0
-876 -1695 0
-877 -1696 0
-878 -1697 0
-879 -1698 0
-880 -1699 0
-881 -1700 0
-882 -1701 0
-874 -1720 0
-875 -1721 0
-876 -1722 0
-877 -1723 0
-878 -1724 0
-879 -1725 0
-880 -1726 0
-881 -1727 0
-882 -1728 0
-874 -1864 0
-875 -1865 0
-876 -1866 0
-877 -1867 0
-878 -1868 0
-879 -1869 0
-880 -1870 0
-881 -1871 0
-882 -1872 0
-874 -1900 0
-875 -1901 0
-876 -1902 0
-877 -1903 0
-878 -1904 0
-879 -1905 0
-880 -1906 0
-881 -1907 0
-882 -1908 0
-874 -1963 0
-875 -1964 0
-876 -1965 0
-877 -1966 0
-878 -1967 0
-879 -1968 0
-880 -1969 0
-881 -1970 0
-882 -1971 0
-874 -2017 0
-875 -2018 0
-876 -2019 0
-877 -2020 0
-878 -2021 0
-879 -2022 0
-880 -2023 0
-881 -2024 0
-882 -2025 0
-874 -2044 0
-875 -2045 0
-876 -2046 0
-877 -2047 0
-878 -2048 0
-879 -2049 0
-880 -2050 0
-881 -2051 0
-882 -2052 0
-874 -2161 0
-875 -2162 0
-876 -2163 0
-877 -2164 0
-878 -2165 0
-879 -2166 0
-880 -2167 0
-881 -2168 0
-882 -2169 0
-874 -2215 0
-875 -2216 0
-876 -2217 0
-877 -2218 0
-878 -2219 0
-879 -2220 0
-880 -2221 0
-881 -2222 0
-882 -2223 0
-874 -2350 0
-875 -2351 0
-876 -2352 0
-877 -2353 0
-878 -2354 0
-879 -2355 0
-880 -2356 0
-881 -2357 0
-882 -2358 0
-874 -2476 0
-875 -2477 0
-876 -2478 0
-877 -2479 0
-878 -2480 0
-879 -2481 0
-880 -2482 0
-881 -2483 0
-882 -2484 0
-874 -2503 0
-875 -2504 0
-876 -2505 0
-877 -2506 0
-878 -2507 0
-879 -2508 0
-880 -2509 0
-881 -2510 0
-882 -2511 0
-874 -2521 0
-875 -2522 0
-876 -2523 0
-877 -2524 0
-878 -2525 0
-879 -2526 0
-880 -2527 0
-881 -2528 0
-882 -2529 0
-874 -2584 0
-875 -2585 0
-876 -2586 0
-877 -2587 0
-878 -2588 0
-879 -2589 0
-880 -2590 0
-881 -2591 0
-882 -2592 0
-874 -2611 0
-875 -2612 0
-876 -2613 0
-877 -2614 0
-878 -2615 0
-879 -2616 0
-880 -2617 0
-881 -2618 0
-882 -2619 0
-874 -2728 0
-875 -2729 0
-876 -2730 0
-877 -2731 0
-878 -2732 0
-879 -2733 0
-880 -2734 0
-881 -2735 0
-882 -2736 0
-883 -937 0
-884 -938 0
-885 -939 0
-886 -940 0
-887 -941 0
-888 -942 0
-889 -943 0
-890 -944 0
-891 -945 0
-883 -1234 0
-884 -1235 0
-885 -1236 0
-886 -1237 0
-887 -1238 0
-888 -1239 0
-889 -1240 0
-890 -1241 0
-891 -1242 0
-883 -1288 0
-884 -1289 0
-885 -1290 0
-886 -1291 0
-887 -1292 0
-888 -1293 0
-889 -1294 0
-890 -1295 0
-891 -1296 0
-883 -1315 0
-884 -1316 0
-885 -1317 0
-886 -1318 0
-887 -1319 0
-888 -1320 0
-889 -1321 0
-890 -1322 0
-891 -1323 0
-883 -1351 0
-884 -1352 0
-885 -1353 0
-886 -1354 0
-887 -1355 0
-888 -1356 0
-889 -1357 0
-890 -1358 0
-891 -1359 0
-883 -1387 0
-884 -1388 0
-885 -1389 0
-886 -1390 0
-887 -1391 0
-888 -1392 0
-889 -1393 0
-890 -1394 0
-891 -1395 0
-883 -1639 0
-884 -1640 0
-885 -1641 0
-886 -1642 0
-887 -1643 0
-888 -1644 0
-889 -1645 0
-890 -1646 0
-891 -1647 0
-883 -1684 0
-884 -1685 0
-885 -1686 0
-886 -1687 0
-887 -1688 0
-888 -1689 0
-889 -1690 0
-890 -1691 0
-891 -1692 0
-883 -1711 0
-884 -1712 0
-885 -1713 0
-886 -1714 0
-887 -1715 0
-888 -1716 0
-889 -1717 0
-890 -1718 0
-891 -1719 0
-883 -1828 0
-884 -1829 0
-885 -1830 0
-886 -1831 0
-887 -1832 0
-888 -1833 0
-889 -1834 0
-890 -1835 0
-891 -1836 0
-883 -1954 0
-884 -1955 0
-885 -1956 0
-886 -1957 0
-887 -1958 0
-888 -1959 0
-889 -1960 0
-890 -1961 0
-891 -1962 0
-883 -2008 0
-884 -2009 0
-885 -2010 0
-886 -2011 0
-887 -2012 0
-888 -2013 0
-889 -2014 0
-890 -2015 0
-891 -2016 0
-883 -2080 0
-884 -2081 0
-885 -2082 0
-886 -2083 0
-887 -2084 0
-888 -2085 0
-889 -2086 0
-890 -2087 0
-891 -2088 0
-883 -2116 0
-884 -2117 0
-885 -2118 0
-886 -2119 0
-887 -2120 0
-888 -2121 0
-889 -2122 0
-890 -2123 0
-891 -2124 0
-883 -2170 0
-884 -2171 0
-885 -2172 0
-886 -2173 0
-887 -2174 0
-888 -2175 0
-889 -2176 0
-890 -2177 0
-891 -2178 0
-883 -2224 0
-884 -2225 0
-885 -2226 0
-886 -2227 0
-887 -2228 0
-888 -2229 0
-889 -2230 0
-890 -2231 0
-891 -2232 0
-883 -2287 0
-884 -2288 0
-885 -2289 0
-886 -2290 0
-887 -2291 0
-888 -2292 0
-889 -2293 0
-890 -2294 0
-891 -2295 0
-883 -2467 0
-884 -2468 0
-885 -2469 0
-886 -2470 0
-887 -2471 0
-888 -2472 0
-889 -2473 0
-890 -2474 0
-891 -2475 0
-883 -2503 0
-884 -2504 0
-885 -2505 0
-886 -2506 0
-887 -2507 0
-888 -2508 0
-889 -2509 0
-890 -2510 0
-891 -2511 0
-883 -2530 0
-884 -2531 0
-885 -2532 0
-886 -2533 0
-887 -2534 0
-888 -2535 0
-889 -2536 0
-890 -2537 0
-891 -2538 0
-883 -2557 0
-884 -2558 0
-885 -2559 0
-886 -2560 0
-887 -2561 0
-888 -2562 0
-889 -2563 0
-890 -2564 0
-891 -2565 0
-883 -2629 0
-884 -2630 0
-885 -2631 0
-886 -2632 0
-887 -2633 0
-888 -2634 0
-889 -2635 0
-890 -2636 0
-891 -2637 0
-883 -2710 0
-884 -2711 0
-885 -2712 0
-886 -2713 0
-887 -2714 0
-888 -2715 0
-889 -2716 0
-890 -2717 0
-891 -2718 0
-892 -991 0
-893 -992 0
-894 -993 0
-895 -994 0
-896 -995 0
-897 -996 0
-898 -997 0
-899 -998 0
-900 -999 0
-892 -1432 0
-893 -1433 0
-894 -1434 0
-895 -1435 0
-896 -1436 0
-897 -1437 0
-898 -1438 0
-899 -1439 0
-900 -1440 0
-892 -1459 0
-893 -1460 0
-894 -1461 0
-895 -1462 0
-896 -1463 0
-897 -1464 0
-898 -1465 0
-899 -1466 0
-900 -1467 0
-892 -1513 0
-893 -1514 0
-894 -1515 0
-895 -1516 0
-896 -1517 0
-897 -1518 0
-898 -1519 0
-899 -1520 0
-900 -1521 0
-892 -1522 0
-893 -1523 0
-894 -1524 0
-895 -1525 0
-896 -1526 0
-897 -1527 0
-898 -1528 0
-899 -1529 0
-900 -1530 0
-892 -1567 0
-893 -1568 0
-894 -1569 0
-895 -1570 0
-896 -1571 0
-897 -1572 0
-898 -1573 0
-899 -1574 0
-900 -1575 0
-892 -1612 0
-893 -1613 0
-894 -1614 0
-895 -1615 0
-896 -1616 0
-897 -1617 0
-898 -1618 0
-899 -1619 0
-900 -1620 0
-892 -1720 0
-893 -1721 0
-894 -1722 0
-895 -1723 0
-896 -1724 0
-897 -1725 0
-898 -1726 0
-899 -1727 0
-900 -1728 0
-892 -1765 0
-893 -1766 0
-894 -1767 0
-895 -1768 0
-896 -1769 0
-897 -1770 0
-898 -1771 0
-899 -1772 0
-900 -1773 0
-892 -1774 0
-893 -1775 0
-894 -1776 0
-895 -1777 0
-896 -1778 0
-897 -1779 0
-898 -1780 0
-899 -1781 0
-900 -1782 0
-892 -1882 0
-893 -1883 0
-894 -1884 0
-895 -1885 0
-896 -1886 0
-897 -1887 0
-898 -1888 0
-899 -1889 0
-900 -1890 0
-892 -1909 0
-893 -1910 0
-894 -1911 0
-895 -1912 0
-896 -1913 0
-897 -1914 0
-898 -1915 0
-899 -1916 0
-900 -1917 0
-892 -1954 0
-893 -1955 0
-894 -1956 0
-895 -1957 0
-896 -1958 0
-897 -1959 0
-898 -1960 0
-899 -1961 0
-900 -1962 0
-892 -1990 0
-893 -1991 0
-894 -1992 0
-895 -1993 0
-896 -1994 0
-897 -1995 0
-898 -1996 0
-899 -1997 0
-900 -1998 0
-892 -2080 0
-893 -2081 0
-894 -2082 0
-895 -2083 0
-896 -2084 0
-897 -2085 0
-898 -2086 0
-899 -2087 0
-900 -2088 0
-892 -2116 0
-893 -2117 0
-894 -2118 0
-895 -2119 0
-896 -2120 0
-897 -2121 0
-898 -2122 0
-899 -2123 0
-900 -2124 0
-892 -2332 0
-893 -2333 0
-894 -2334 0
-895 -2335 0
-896 -2336 0
-897 -2337 0
-898 -2338 0
-899 -2339 0
-900 -2340 0
-892 -2458 0
-893 -2459 0
-894 -2460 0
-895 -2461 0
-896 -2462 0
-897 -2463 0
-898 -2464 0
-899 -2465 0
-900 -2466 0
-892 -2512 0
-893 -2513 0
-894 -2514 0
-895 -2515 0
-896 -2516 0
-897 -2517 0
-898 -2518 0
-899 -2519 0
-900 -2520 0
-892 -2521 0
-893 -2522 0
-894 -2523 0
-895 -2524 0
-896 -2525 0
-897 -2526 0
-898 -2527 0
-899 -2528 0
-900 -2529 0
-892 -2539 0
-893 -2540 0
-894 -2541 0
-895 -2542 0
-896 -2543 0
-897 -2544 0
-898 -2545 0
-899 -2546 0
-900 -2547 0
-892 -2584 0
-893 -2585 0
-894 -2586 0
-895 -2587 0
-896 -2588 0
-897 -2589 0
-898 -2590 0
-899 -2591 0
-900 -2592 0
-892 -2683 0
-893 -2684 0
-894 -2685 0
-895 -2686 0
-896 -2687 0
-897 -2688 0
-898 -2689 0
-899 -2690 0
-900 -2691 0
-901 -982 0
-902 -983 0
-903 -984 0
-904 -985 0
-905 -986 0
-906 -987 0
-907 -988 0
-908 -989 0
-909 -990 0
-901 -1243 0
-902 -1244 0
-903 -1245 0
-904 -1246 0
-905 -1247 0
-906 -1248 0
-907 -1249 0
-908 -1250 0
-909 -1251 0
-901 -1459 0
-902 -1460 0
-903 -1461 0
-904 -1462 0
-905 -1463 0
-906 -1464 0
-907 -1465 0
-908 -1466 0
-909 -1467 0
-901 -1504 0
-902 -1505 0
-903 -1506 0
-904 -1507 0
-905 -1508 0
-906 -1509 0
-907 -1510 0
-908 -1511 0
-909 -1512 0
-901 -1531 0
-902 -1532 0
-903 -1533 0
-904 -1534 0
-905 -1535 0
-906 -1536 0
-907 -1537 0
-908 -1538 0
-909 -1539 0
-901 -1558 0
-902 -1559 0
-903 -1560 0
-904 -1561 0
-905 -1562 0
-906 -1563 0
-907 -1564 0
-908 -1565 0
-909 -1566 0
-901 -1603 0
-902 -1604 0
-903 -1605 0
-904 -1606 0
-905 -1607 0
-906 -1608 0
-907 -1609 0
-908 -1610 0
-909 -1611 0
-901 -1711 0
-902 -1712 0
-903 -1713 0
-904 -1714 0
-905 -1715 0
-906 -1716 0
-907 -1717 0
-908 -1718 0
-909 -1719 0
-901 -1756 0
-902 -1757 0
-903 -1758 0
-904 -1759 0
-905 -1760 0
-906 -1761 0
-907 -1762 0
-908 -1763 0
-909 -1764 0
-901 -1783 0
-902 -1784 0
-903 -1785 0
-904 -1786 0
-905 -1787 0
-906 -1788 0
-907 -1789 0
-908 -1790 0
-909 -1791 0
-901 -1864 0
-902 -1865 0
-903 -1866 0
-904 -1867 0
-905 -1868 0
-906 -1869 0
-907 -1870 0
-908 -1871 0
-909 -1872 0
-901 -1900 0
-902 -1901 0
-903 -1902 0
-904 -1903 0
-905 -1904 0
-906 -1905 0
-907 -1906 0
-908 -1907 0
-909 -1908 0
-901 -2098 0
-902 -2099 0
-903 -2100 0
-904 -2101 0
-905 -2102 0
-906 -2103 0
-907 -2104 0
-908 -2105 0
-909 -2106 0
-901 -2125 0
-902 -2126 0
-903 -2127 0
-904 -2128 0
-905 -2129 0
-906 -2130 0
-907 -2131 0
-908 -2132 0
-909 -2133 0
-901 -2161 0
-902 -2162 0
-903 -2163 0
-904 -2164 0
-905 -2165 0
-906 -2166 0
-907 -2167 0
-908 -2168 0
-909 -2169 0
-901 -2197 0
-902 -2198 0
-903 -2199 0
-904 -2200 0
-905 -2201 0
-906 -2202 0
-907 -2203 0
-908 -2204 0
-909 -2205 0
-901 -2260 0
-902 -2261 0
-903 -2262 0
-904 -2263 0
-905 -2264 0
-906 -2265 0
-907 -2266 0
-908 -2267 0
-909 -2268 0
-901 -2449 0
-902 -2450 0
-903 -2451 0
-904 -2452 0
-905 -2453 0
-906 -2454 0
-907 -2455 0
-908 -2456 0
-909 -2457 0
-901 -2512 0
-902 -2513 0
-903 -2514 0
-904 -2515 0
-905 -2516 0
-906 -2517 0
-907 -2518 0
-908 -2519 0
-909 -2520 0
-901 -2530 0
-902 -2531 0
-903 -2532 0
-904 -2533 0
-905 -2534 0
-906 -2535 0
-907 -2536 0
-908 -2537 0
-909 -2538 0
-901 -2539 0
-902 -2540 0
-903 -2541 0
-904 -2542 0
-905 -2543 0
-906 -2544 0
-907 -2545 0
-908 -2546 0
-909 -2547 0
-901 -2629 0
-902 -2630 0
-903 -2631 0
-904 -2632 0
-905 -2633 0
-906 -2634 0
-907 -2635 0
-908 -2636 0
-909 -2637 0
-901 -2692 0
-902 -2693 0
-903 -2694 0
-904 -2695 0
-905 -2696 0
-906 -2697 0
-907 -2698 0
-908 -2699 0
-909 -2700 0
-910 -1045 0
-911 -1046 0
-912 -1047 0
-913 -1048 0
-914 -1049 0
-915 -1050 0
-916 -1051 0
-917 -1052 0
-918 -1053 0
-910 -1054 0
-911 -1055 0
-912 -1056 0
-913 -1057 0
-914 -1058 0
-915 -1059 0
-916 -1060 0
-917 -1061 0
-918 -1062 0
-910 -1666 0
-911 -1667 0
-912 -1668 0
-913 -1669 0
-914 -1670 0
-915 -1671 0
-916 -1672 0
-917 -1673 0
-918 -1674 0
-910 -1891 0
-911 -1892 0
-912 -1893 0
-913 -1894 0
-914 -1895 0
-915 -1896 0
-916 -1897 0
-917 -1898 0
-918 -1899 0
-910 -2143 0
-911 -2144 0
-912 -2145 0
-913 -2146 0
-914 -2147 0
-915 -2148 0
-916 -2149 0
-917 -2150 0
-918 -2151 0
-910 -2458 0
-911 -2459 0
-912 -2460 0
-913 -2461 0
-914 -2462 0
-915 -2463 0
-916 -2464 0
-917 -2465 0
-918 -2466 0
-910 -2692 0
-911 -2693 0
-912 -2694 0
-913 -2695 0
-914 -2696 0
-915 -2697 0
-916 -2698 0
-917 -2699 0
-918 -2700 0
-910 -2710 0
-911 -2711 0
-912 -2712 0
-913 -2713 0
-914 -2714 0
-915 -2715 0
-916 -2716 0
-917 -2717 0
-918 -2718 0
-910 -2755 0
-911 -2756 0
-912 -2757 0
-913 -2758 0
-914 -2759 0
-915 -2760 0
-916 -2761 0
-917 -2762 0
-918 -2763 0
-910 -2800 0
-911 -2801 0
-912 -2802 0
-913 -2803 0
-914 -2804 0
-915 -2805 0
-916 -2806 0
-917 -2807 0
-918 -2808 0
-919 -1153 0
-920 -1154 0
-921 -1155 0
-922 -1156 0
-923 -1157 0
-924 -1158 0
-925 -1159 0
-926 -1160 0
-927 -1161 0
-919 -1387 0
-920 -1388 0
-921 -1389 0
-922 -1390 0
-923 -1391 0
-924 -1392 0
-925 -1393 0
-926 -1394 0
-927 -1395 0
-919 -1414 0
-920 -1415 0
-921 -1416 0
-922 -1417 0
-923 -1418 0
-924 -1419 0
-925 -1420 0
-926 -1421 0
-927 -1422 0
-919 -1873 0
-920 -1874 0
-921 -1875 0
-922 -1876 0
-923 -1877 0
-924 -1878 0
-925 -1879 0
-926 -1880 0
-927 -1881 0
-919 -1882 0
-920 -1883 0
-921 -1884 0
-922 -1885 0
-923 -1886 0
-924 -1887 0
-925 -1888 0
-926 -1889 0
-927 -1890 0
-919 -2026 0
-920 -2027 0
-921 -2028 0
-922 -2029 0
-923 -2030 0
-924 -2031 0
-925 -2032 0
-926 -2033 0
-927 -2034 0
-919 -2080 0
-920 -2081 0
-921 -2082 0
-922 -2083 0
-923 -2084 0
-924 -2085 0
-925 -2086 0
-926 -2087 0
-927 -2088 0
-919 -2386 0
-920 -2387 0
-921 -2388 0
-922 -2389 0
-923 -2390 0
-924 -2391 0
-925 -2392 0
-926 -2393 0
-927 -2394 0
-919 -2422 0
-920 -2423 0
-921 -2424 0
-922 -2425 0
-923 -2426 0
-924 -2427 0
-925 -2428 0
-926 -2429 0
-927 -2430 0
-919 -2845 0
-920 -2846 0
-921 -2847 0
-922 -2848 0
-923 -2849 0
-924 -2850 0
-925 -2851 0
-926 -2852 0
-927 -2853 0
-928 -1054 0
-929 -1055 0
-930 -1056 0
-931 -1057 0
-932 -1058 0
-933 -1059 0
-934 -1060 0
-935 -1061 0
-936 -1062 0
-928 -1270 0
-929 -1271 0
-930 -1272 0
-931 -1273 0
-932 -1274 0
-933 -1275 0
-934 -1276 0
-935 -1277 0
-936 -1278 0
-928 -1657 0
-929 -1658 0
-930 -1659 0
-931 -1660 0
-932 -1661 0
-933 -1662 0
-934 -1663 0
-935 -1664 0
-936 -1665 0
-928 -1927 0
-929 -1928 0
-930 -1929 0
-931 -1930 0
-932 -1931 0
-933 -1932 0
-934 -1933 0
-935 -1934 0
-936 -1935 0
-928 -2107 0
-929 -2108 0
-930 -2109 0
-931 -2110 0
-932 -2111 0
-933 -2112 0
-934 -2113 0
-935 -2114 0
-936 -2115 0
-928 -2449 0
-929 -2450 0
-930 -2451 0
-931 -2452 0
-932 -2453 0
-933 -2454 0
-934 -2455 0
-935 -2456 0
-936 -2457 0
-928 -2683 0
-929 -2684 0
-930 -2685 0
-931 -2686 0
-932 -2687 0
-933 -2688 0
-934 -2689 0
-935 -2690 0
-936 -2691 0
-928 -2728 0
-929 -2729 0
-930 -2730 0
-931 -2731 0
-932 -2732 0
-933 -2733 0
-934 -2734 0
-935 -2735 0
-936 -2736 0
-928 -2782 0
-929 -2783 0
-930 -2784 0
-931 -2785 0
-932 -2786 0
-933 -2787 0
-934 -2788 0
-935 -2789 0
-936 -2790 0
-928 -2818 0
-929 -2819 0
-930 -2820 0
-931 -2821 0
-932 -2822 0
-933 -2823 0
-934 -2824 0
-935 -2825 0
-936 -2826 0
-937 -1180 0
-938 -1181 0
-939 -1182 0
-940 -1183 0
-941 -1184 0
-942 -1185 0
-943 -1186 0
-944 -1187 0
-945 -1188 0
-937 -1207 0
-938 -1208 0
-939 -1209 0
-940 -1210 0
-941 -1211 0
-942 -1212 0
-943 -1213 0
-944 -1214 0
-945 -1215 0
-937 -1360 0
-938 -1361 0
-939 -1362 0
-940 -1363 0
-941 -1364 0
-942 -1365 0
-943 -1366 0
-944 -1367 0
-945 -1368 0
-937 -1864 0
-938 -1865 0
-939 -1866 0
-940 -1867 0
-941 -1868 0
-942 -1869 0
-943 -1870 0
-944 -1871 0
-945 -1872 0
-937 -2089 0
-938 -2090 0
-939 -2091 0
-940 -2092 0
-941 -2093 0
-942 -2094 0
-943 -2095 0
-944 -2096 0
-945 -2097 0
-937 -2098 0
-938 -2099 0
-939 -2100 0
-940 -2101 0
-941 -2102 0
-942 -2103 0
-943 -2104 0
-944 -2105 0
-945 -2106 0
-937 -2233 0
-938 -2234 0
-939 -2235 0
-940 -2236 0
-941 -2237 0
-942 -2238 0
-943 -2239 0
-944 -2240 0
-945 -2241 0
-937 -2323 0
-938 -2324 0
-939 -2325 0
-940 -2326 0
-941 -2327 0
-942 -2328 0
-943 -2329 0
-944 -2330 0
-945 -2331 0
-937 -2431 0
-938 -2432 0
-939 -2433 0
-940 -2434 0
-941 -2435 0
-942 -2436 0
-943 -2437 0
-944 -2438 0
-945 -2439 0
-937 -2791 0
-938 -2792 0
-939 -2793 0
-940 -2794 0
-941 -2795 0
-942 -2796 0
-943 -2797 0
-944 -2798 0
-945 -2799 0
-946 -1126 0
-947 -1127 0
-948 -1128 0
-949 -1129 0
-950 -1130 0
-951 -1131 0
-952 -1132 0
-953 -1133 0
-954 -1134 0
-946 -1558 0
-947 -1559 0
-948 -1560 0
-949 -1561 0
-950 -1562 0
-951 -1563 0
-952 -1564 0
-953 -1565 0
-954 -1566 0
-946 -1585 0
-947 -1586 0
-948 -1587 0
-949 -1588 0
-950 -1589 0
-951 -1590 0
-952 -1591 0
-953 -1592 0
-954 -1593 0
-946 -1648 0
-947 -1649 0
-948 -1650 0
-949 -1651 0
-950 -1652 0
-951 -1653 0
-952 -1654 0
-953 -1655 0
-954 -1656 0
-946 -1657 0
-947 -1658 0
-948 -1659 0
-949 -1660 0
-950 -1661 0
-951 -1662 0
-952 -1663 0
-953 -1664 0
-954 -1665 0
-946 -1810 0
-947 -1811 0
-948 -1812 0
-949 -1813 0
-950 -1814 0
-951 -1815 0
-952 -1816 0
-953 -1817 0
-954 -1818 0
-946 -2098 0
-947 -2099 0
-948 -2100 0
-949 -2101 0
-950 -2102 0
-951 -2103 0
-952 -2104 0
-953 -2105 0
-954 -2106 0
-946 -2377 0
-947 -2378 0
-948 -2379 0
-949 -2380 0
-950 -2381 0
-951 -2382 0
-952 -2383 0
-953 -2384 0
-954 -2385 0
-946 -2431 0
-947 -2432 0
-948 -2433 0
-949 -2434 0
-950 -2435 0
-951 -2436 0
-952 -2437 0
-953 -2438 0
-954 -2439 0
-946 -2881 0
-947 -2882 0
-948 -2883 0
-949 -2884 0
-950 -2885 0
-951 -2886 0
-952 -2887 0
-953 -2888 0
-954 -2889 0
-955 -1342 0
-956 -1343 0
-957 -1344 0
-958 -1345 0
-959 -1346 0
-960 -1347 0
-961 -1348 0
-962 -1349 0
-963 -1350 0
-955 -1567 0
-956 -1568 0
-957 -1569 0
-958 -1570 0
-959 -1571 0
-960 -1572 0
-961 -1573 0
-962 -1574 0
-963 -1575 0
-955 -1576 0
-956 -1577 0
-957 -1578 0
-958 -1579 0
-959 -1580 0
-960 -1581 0
-961 -1582 0
-962 -1583 0
-963 -1584 0
-955 -1639 0
-956 -1640 0
-957 -1641 0
-958 -1642 0
-959 -1643 0
-960 -1644 0
-961 -1645 0
-962 -1646 0
-963 -1647 0
-955 -1666 0
-956 -1667 0
-957 -1668 0
-958 -1669 0
-959 -1670 0
-960 -1671 0
-961 -1672 0
-962 -1673 0
-963 -1674 0
-955 -1819 0
-956 -1820 0
-957 -1821 0
-958 -1822 0
-959 -1823 0
-960 -1824 0
-961 -1825 0
-962 -1826 0
-963 -1827 0
-955 -1882 0
-956 -1883 0
-957 -1884 0
-958 -1885 0
-959 -1886 0
-960 -1887 0
-961 -1888 0
-962 -1889 0
-963 -1890 0
-955 -2314 0
-956 -2315 0
-957 -2316 0
-958 -2317 0
-959 -2318 0
-960 -2319 0
-961 -2320 0
-962 -2321 0
-963 -2322 0
-955 -2422 0
-956 -2423 0
-957 -2424 0
-958 -2425 0
-959 -2426 0
-960 -2427 0
-961 -2428 0
-962 -2429 0
-963 -2430 0
-955 -2890 0
-956 -2891 0
-957 -2892 0
-958 -2893 0
-959 -2894 0
-960 -2895 0
-961 -2896 0
-962 -2897 0
-963 -2898 0
-964 -1045 0
-965 -1046 0
-966 -1047 0
-967 -1048 0
-968 -1049 0
-969 -1050 0
-970 -1051 0
-971 -1052 0
-972 -1053 0
-964 -1270 0
-965 -1271 0
-966 -1272 0
-967 -1273 0
-968 -1274 0
-969 -1275 0
-970 -1276 0
-971 -1277 0
-972 -1278 0
-964 -1702 0
-965 -1703 0
-966 -1704 0
-967 -1705 0
-968 -1706 0
-969 -1707 0
-970 -1708 0
-971 -1709 0
-972 -1710 0
-964 -1873 0
-965 -1874 0
-966 -1875 0
-967 -1876 0
-968 -1877 0
-969 -1878 0
-970 -1879 0
-971 -1880 0
-972 -1881 0
-964 -2089 0
-965 -2090 0
-966 -2091 0
-967 -2092 0
-968 -2093 0
-969 -2094 0
-970 -2095 0
-971 -2096 0
-972 -2097 0
-964 -2503 0
-965 -2504 0
-966 -2505 0
-967 -2506 0
-968 -2507 0
-969 -2508 0
-970 -2509 0
-971 -2510 0
-972 -2511 0
-964 -2701 0
-965 -2702 0
-966 -2703 0
-967 -2704 0
-968 -2705 0
-969 -2706 0
-970 -2707 0
-971 -2708 0
-972 -2709 0
-964 -2719 0
-965 -2720 0
-966 -2721 0
-967 -2722 0
-968 -2723 0
-969 -2724 0
-970 -2725 0
-971 -2726 0
-972 -2727 0
-964 -2836 0
-965 -2837 0
-966 -2838 0
-967 -2839 0
-968 -2840 0
-969 -2841 0
-970 -2842 0
-971 -2843 0
-972 -2844 0
-964 -2863 0
-965 -2864 0
-966 -2865 0
-967 -2866 0
-968 -2867 0
-969 -2868 0
-970 -2869 0
-971 -2870 0
-972 -2871 0
-973 -1063 0
-974 -1064 0
-975 -1065 0
-976 -1066 0
-977 -1067 0
-978 -1068 0
-979 -1069 0
-980 -1070 0
-981 -1071 0
-973 -1180 0
-974 -1181 0
-975 -1182 0
-976 -1183 0
-977 -1184 0
-978 -1185 0
-979 -1186 0
-980 -1187 0
-981 -1188 0
-973 -1243 0
-974 -1244 0
-975 -1245 0
-976 -1246 0
-977 -1247 0
-978 -1248 0
-979 -1249 0
-980 -1250 0
-981 -1251 0
-973 -1279 0
-974 -1280 0
-975 -1281 0
-976 -1282 0
-977 -1283 0
-978 -1284 0
-979 -1285 0
-980 -1286 0
-981 -1287 0
-973 -1387 0
-974 -1388 0
-975 -1389 0
-976 -1390 0
-977 -1391 0
-978 -1392 0
-979 -1393 0
-980 -1394 0
-981 -1395 0
-973 -1432 0
-974 -1433 0
-975 -1434 0
-976 -1435 0
-977 -1436 0
-978 -1437 0
-979 -1438 0
-980 -1439 0
-981 -1440 0
-973 -2035 0
-974 -2036 0
-975 -2037 0
-976 -2038 0
-977 -2039 0
-978 -2040 0
-979 -2041 0
-980 -2042 0
-981 -2043 0
-973 -2242 0
-974 -2243 0
-975 -2244 0
-976 -2245 0
-977 -2246 0
-978 -2247 0
-979 -2248 0
-980 -2249 0
-981 -2250 0
-973 -2467 0
-974 -2468 0
-975 -2469 0
-976 -2470 0
-977 -2471 0
-978 -2472 0
-979 -2473 0
-980 -2474 0
-981 -2475 0
-973 -2476 0
-974 -2477 0
-975 -2478 0
-976 -2479 0
-977 -2480 0
-978 -2481 0
-979 -2482 0
-980 -2483 0
-981 -2484 0
-973 -2539 0
-974 -2540 0
-975 -2541 0
-976 -2542 0
-977 -2543 0
-978 -2544 0
-979 -2545 0
-980 -2546 0
-981 -2547 0
-973 -2566 0
-974 -2567 0
-975 -2568 0
-976 -2569 0
-977 -2570 0
-978 -2571 0
-979 -2572 0
-980 -2573 0
-981 -2574 0
-973 -2620 0
-974 -2621 0
-975 -2622 0
-976 -2623 0
-977 -2624 0
-978 -2625 0
-979 -2626 0
-980 -2627 0
-981 -2628 0
-973 -2701 0
-974 -2702 0
-975 -2703 0
-976 -2704 0
-977 -2705 0
-978 -2706 0
-979 -2707 0
-980 -2708 0
-981 -2709 0
-973 -2719 0
-974 -2720 0
-975 -2721 0
-976 -2722 0
-977 -2723 0
-978 -2724 0
-979 -2725 0
-980 -2726 0
-981 -2727 0
-973 -2791 0
-974 -2792 0
-975 -2793 0
-976 -2794 0
-977 -2795 0
-978 -2796 0
-979 -2797 0
-980 -2798 0
-981 -2799 0
-973 -2836 0
-974 -2837 0
-975 -2838 0
-976 -2839 0
-977 -2840 0
-978 -2841 0
-979 -2842 0
-980 -2843 0
-981 -2844 0
-973 -2845 0
-974 -2846 0
-975 -2847 0
-976 -2848 0
-977 -2849 0
-978 -2850 0
-979 -2851 0
-980 -2852 0
-981 -2853 0
-973 -2863 0
-974 -2864 0
-975 -2865 0
-976 -2866 0
-977 -2867 0
-978 -2868 0
-979 -2869 0
-980 -2870 0
-981 -2871 0
-982 -1189 0
-983 -1190 0
-984 -1191 0
-985 -1192 0
-986 -1193 0
-987 -1194 0
-988 -1195 0
-989 -1196 0
-990 -1197 0
-982 -1198 0
-983 -1199 0
-984 -1200 0
-985 -1201 0
-986 -1202 0
-987 -1203 0
-988 -1204 0
-989 -1205 0
-990 -1206 0
-982 -1495 0
-983 -1496 0
-984 -1497 0
-985 -1498 0
-986 -1499 0
-987 -1500 0
-988 -1501 0
-989 -1502 0
-990 -1503 0
-982 -1639 0
-983 -1640 0
-984 -1641 0
-985 -1642 0
-986 -1643 0
-987 -1644 0
-988 -1645 0
-989 -1646 0
-990 -1647 0
-982 -2080 0
-983 -2081 0
-984 -2082 0
-985 -2083 0
-986 -2084 0
-987 -2085 0
-988 -2086 0
-989 -2087 0
-990 -2088 0
-982 -2107 0
-983 -2108 0
-984 -2109 0
-985 -2110 0
-986 -2111 0
-987 -2112 0
-988 -2113 0
-989 -2114 0
-990 -2115 0
-982 -2242 0
-983 -2243 0
-984 -2244 0
-985 -2245 0
-986 -2246 0
-987 -2247 0
-988 -2248 0
-989 -2249 0
-990 -2250 0
-982 -2314 0
-983 -2315 0
-984 -2316 0
-985 -2317 0
-986 -2318 0
-987 -2319 0
-988 -2320 0
-989 -2321 0
-990 -2322 0
-982 -2386 0
-983 -2387 0
-984 -2388 0
-985 -2389 0
-986 -2390 0
-987 -2391 0
-988 -2392 0
-989 -2393 0
-990 -2394 0
-982 -2737 0
-983 -2738 0
-984 -2739 0
-985 -2740 0
-986 -2741 0
-987 -2742 0
-988 -2743 0
-989 -2744 0
-990 -2745 0
-991 -1396 0
-992 -1397 0
-993 -1398 0
-994 -1399 0
-995 -1400 0
-996 -1401 0
-997 -1402 0
-998 -1403 0
-999 -1404 0
-991 -1405 0
-992 -1406 0
-993 -1407 0
-994 -1408 0
-995 -1409 0
-996 -1410 0
-997 -1411 0
-998 -1412 0
-999 -1413 0
-991 -1486 0
-992 -1487 0
-993 -1488 0
-994 -1489 0
-995 -1490 0
-996 -1491 0
-997 -1492 0
-998 -1493 0
-999 -1494 0
-991 -1648 0
-992 -1649 0
-993 -1650 0
-994 -1651 0
-995 -1652 0
-996 -1653 0
-997 -1654 0
-998 -1655 0
-999 -1656 0
-991 -1864 0
-992 -1865 0
-993 -1866 0
-994 -1867 0
-995 -1868 0
-996 -1869 0
-997 -1870 0
-998 -1871 0
-999 -1872 0
-991 -1891 0
-992 -1892 0
-993 -1893 0
-994 -1894 0
-995 -1895 0
-996 -1896 0
-997 -1897 0
-998 -1898 0
-999 -1899 0
-991 -2035 0
-992 -2036 0
-993 -2037 0
-994 -2038 0
-995 -2039 0
-996 -2040 0
-997 -2041 0
-998 -2042 0
-999 -2043 0
-991 -2323 0
-992 -2324 0
-993 -2325 0
-994 -2326 0
-995 -2327 0
-996 -2328 0
-997 -2329 0
-998 -2330 0
-999 -2331 0
-991 -2377 0
-992 -2378 0
-993 -2379 0
-994 -2380 0
-995 -2381 0
-996 -2382 0
-997 -2383 0
-998 -2384 0
-999 -2385 0
-991 -2764 0
-992 -2765 0
-993 -2766 0
-994 -2767 0
-995 -2768 0
-996 -2769 0
-997 -2770 0
-998 -2771 0
-999 -2772 0
-1000 -1063 0
-1001 -1064 0
-1002 -1065 0
-1003 -1066 0
-1004 -1067 0
-1005 -1068 0
-1006 -1069 0
-1007 -1070 0
-1008 -1071 0
-1000 -1189 0
-1001 -1190 0
-1002 -1191 0
-1003 -1192 0
-1004 -1193 0
-1005 -1194 0
-1006 -1195 0
-1007 -1196 0
-1008 -1197 0
-1000 -1234 0
-1001 -1235 0
-1002 -1236 0
-1003 -1237 0
-1004 -1238 0
-1005 -1239 0
-1006 -1240 0
-1007 -1241 0
-1008 -1242 0
-1000 -1432 0
-1001 -1433 0
-1002 -1434 0
-1003 -1435 0
-1004 -1436 0
-1005 -1437 0
-1006 -1438 0
-1007 -1439 0
-1008 -1440 0
-1000 -1450 0
-1001 -1451 0
-1002 -1452 0
-1003 -1453 0
-1004 -1454 0
-1005 -1455 0
-1006 -1456 0
-1007 -1457 0
-1008 -1458 0
-1000 -1558 0
-1001 -1559 0
-1002 -1560 0
-1003 -1561 0
-1004 -1562 0
-1005 -1563 0
-1006 -1564 0
-1007 -1565 0
-1008 -1566 0
-1000 -1819 0
-1001 -1820 0
-1002 -1821 0
-1003 -1822 0
-1004 -1823 0
-1005 -1824 0
-1006 -1825 0
-1007 -1826 0
-1008 -1827 0
-1000 -2233 0
-1001 -2234 0
-1002 -2235 0
-1003 -2236 0
-1004 -2237 0
-1005 -2238 0
-1006 -2239 0
-1007 -2240 0
-1008 -2241 0
-1000 -2476 0
-1001 -2477 0
-1002 -2478 0
-1003 -2479 0
-1004 -2480 0
-1005 -2481 0
-1006 -2482 0
-1007 -2483 0
-1008 -2484 0
-1000 -2512 0
-1001 -2513 0
-1002 -2514 0
-1003 -2515 0
-1004 -2516 0
-1005 -2517 0
-1006 -2518 0
-1007 -2519 0
-1008 -2520 0
-1000 -2548 0
-1001 -2549 0
-1002 -2550 0
-1003 -2551 0
-1004 -2552 0
-1005 -2553 0
-1006 -2554 0
-1007 -2555 0
-1008 -2556 0
-1000 -2557 0
-1001 -2558 0
-1002 -2559 0
-1003 -2560 0
-1004 -2561 0
-1005 -2562 0
-1006 -2563 0
-1007 -2564 0
-1008 -2565 0
-1000 -2620 0
-1001 -2621 0
-1002 -2622 0
-1003 -2623 0
-1004 -2624 0
-1005 -2625 0
-1006 -2626 0
-1007 -2627 0
-1008 -2628 0
-1000 -2683 0
-1001 -2684 0
-1002 -2685 0
-1003 -2686 0
-1004 -2687 0
-1005 -2688 0
-1006 -2689 0
-1007 -2690 0
-1008 -2691 0
-1000 -2728 0
-1001 -2729 0
-1002 -2730 0
-1003 -2731 0
-1004 -2732 0
-1005 -2733 0
-1006 -2734 0
-1007 -2735 0
-1008 -2736 0
-1000 -2737 0
-1001 -2738 0
-1002 -2739 0
-1003 -2740 0
-1004 -2741 0
-1005 -2742 0
-1006 -2743 0
-1007 -2744 0
-1008 -2745 0
-1000 -2782 0
-1001 -2783 0
-1002 -2784 0
-1003 -2785 0
-1004 -2786 0
-1005 -2787 0
-1006 -2788 0
-1007 -2789 0
-1008 -2790 0
-1000 -2818 0
-1001 -2819 0
-1002 -2820 0
-1003 -2821 0
-1004 -2822 0
-1005 -2823 0
-1006 -2824 0
-1007 -2825 0
-1008 -2826 0
-1000 -2881 0
-1001 -2882 0
-1002 -2883 0
-1003 -2884 0
-1004 -2885 0
-1005 -2886 0
-1006 -2887 0
-1007 -2888 0
-1008 -2889 0
-1009 -1234 0
-1010 -1235 0
-1011 -1236 0
-1012 -1237 0
-1013 -1238 0
-1014 -1239 0
-1015 -1240 0
-1016 -1241 0
-1017 -1242 0
-1009 -1243 0
-1010 -1244 0
-1011 -1245 0
-1012 -1246 0
-1013 -1247 0
-1014 -1248 0
-1015 -1249 0
-1016 -1250 0
-1017 -1251 0
-1009 -1279 0
-1010 -1280 0
-1011 -1281 0
-1012 -1282 0
-1013 -1283 0
-1014 -1284 0
-1015 -1285 0
-1016 -1286 0
-1017 -1287 0
-1009 -1396 0
-1010 -1397 0
-1011 -1398 0
-1012 -1399 0
-1013 -1400 0
-1014 -1401 0
-1015 -1402 0
-1016 -1403 0
-1017 -1404 0
-1009 -1450 0
-1010 -1451 0
-1011 -1452 0
-1012 -1453 0
-1013 -1454 0
-1014 -1455 0
-1015 -1456 0
-1016 -1457 0
-1017 -1458 0
-1009 -1567 0
-1010 -1568 0
-1011 -1569 0
-1012 -1570 0
-1013 -1571 0
-1014 -1572 0
-1015 -1573 0
-1016 -1574 0
-1017 -1575 0
-1009 -1810 0
-1010 -1811 0
-1011 -1812 0
-1012 -1813 0
-1013 -1814 0
-1014 -1815 0
-1015 -1816 0
-1016 -1817 0
-1017 -1818 0
-1009 -2026 0
-1010 -2027 0
-1011 -2028 0
-1012 -2029 0
-1013 -2030 0
-1014 -2031 0
-1015 -2032 0
-1016 -2033 0
-1017 -2034 0
-1009 -2467 0
-1010 -2468 0
-1011 -2469 0
-1012 -2470 0
-1013 -2471 0
-1014 -2472 0
-1015 -2473 0
-1016 -2474 0
-1017 -2475 0
-1009 -2512 0
-1010 -2513 0
-1011 -2514 0
-1012 -2515 0
-1013 -2516 0
-1014 -2517 0
-1015 -2518 0
-1016 -2519 0
-1017 -2520 0
-1009 -2548 0
-1010 -2549 0
-1011 -2550 0
-1012 -2551 0
-1013 -2552 0
-1014 -2553 0
-1015 -2554 0
-1016 -2555 0
-1017 -2556 0
-1009 -2566 0
-1010 -2567 0
-1011 -2568 0
-1012 -2569 0
-1013 -2570 0
-1014 -2571 0
-1015 -2572 0
-1016 -2573 0
-1017 -2574 0
-1009 -2611 0
-1010 -2612 0
-1011 -2613 0
-1012 -2614 0
-1013 -2615 0
-1014 -2616 0
-1015 -2617 0
-1016 -2618 0
-1017 -2619 0
-1009 -2692 0
-1010 -2693 0
-1011 -2694 0
-1012 -2695 0
-1013 -2696 0
-1014 -2697 0
-1015 -2698 0
-1016 -2699 0
-1017 -2700 0
-1009 -2710 0
-1010 -2711 0
-1011 -2712 0
-1012 -2713 0
-1013 -2714 0
-1014 -2715 0
-1015 -2716 0
-1016 -2717 0
-1017 -2718 0
-1009 -2755 0
-1010 -2756 0
-1011 -2757 0
-1012 -2758 0
-1013 -2759 0
-1014 -2760 0
-1015 -2761 0
-1016 -2762 0
-1017 -2763 0
-1009 -2764 0
-1010 -2765 0
-1011 -2766 0
-1012 -2767 0
-1013 -2768 0
-1014 -2769 0
-1015 -2770 0
-1016 -2771 0
-1017 -2772 0
-1009 -2800 0
-1010 -2801 0
-1011 -2802 0
-1012 -2803 0
-1013 -2804 0
-1014 -2805 0
-1015 -2806 0
-1016 -2807 0
-1017 -2808 0
-1009 -2890 0
-1010 -2891 0
-1011 -2892 0
-1012 -2893 0
-1013 -2894 0
-1014 -2895 0
-1015 -2896 0
-1016 -2897 0
-1017 -2898 0
-1018 -1081 0
-1019 -1082 0
-1020 -1083 0
-1021 -1084 0
-1022 -1085 0
-1023 -1086 0
-1024 -1087 0
-1025 -1088 0
-1026 -1089 0
-1018 -1099 0
-1019 -1100 0
-1020 -1101 0
-1021 -1102 0
-1022 -1103 0
-1023 -1104 0
-1024 -1105 0
-1025 -1106 0
-1026 -1107 0
-1018 -1144 0
-1019 -1145 0
-1020 -1146 0
-1021 -1147 0
-1022 -1148 0
-1023 -1149 0
-1024 -1150 0
-1025 -1151 0
-1026 -1152 0
-1018 -1261 0
-1019 -1262 0
-1020 -1263 0
-1021 -1264 0
-1022 -1265 0
-1023 -1266 0
-1024 -1267 0
-1025 -1268 0
-1026 -1269 0
-1018 -1594 0
-1019 -1595 0
-1020 -1596 0
-1021 -1597 0
-1022 -1598 0
-1023 -1599 0
-1024 -1600 0
-1025 -1601 0
-1026 -1602 0
-1018 -1693 0
-1019 -1694 0
-1020 -1695 0
-1021 -1696 0
-1022 -1697 0
-1023 -1698 0
-1024 -1699 0
-1025 -1700 0
-1026 -1701 0
-1018 -1909 0
-1019 -1910 0
-1020 -1911 0
-1021 -1912 0
-1022 -1913 0
-1023 -1914 0
-1024 -1915 0
-1025 -1916 0
-1026 -1917 0
-1018 -2044 0
-1019 -2045 0
-1020 -2046 0
-1021 -2047 0
-1022 -2048 0
-1023 -2049 0
-1024 -2050 0
-1025 -2051 0
-1026 -2052 0
-1018 -2053 0
-1019 -2054 0
-1020 -2055 0
-1021 -2056 0
-1022 -2057 0
-1023 -2058 0
-1024 -2059 0
-1025 -2060 0
-1026 -2061 0
-1018 -2341 0
-1019 -2342 0
-1020 -2343 0
-1021 -2344 0
-1022 -2345 0
-1023 -2346 0
-1024 -2347 0
-1025 -2348 0
-1026 -2349 0
-1027 -1072 0
-1028 -1073 0
-1029 -1074 0
-1030 -1075 0
-1031 -1076 0
-1032 -1077 0
-1033 -1078 0
-1034 -1079 0
-1035 -1080 0
-1027 -1108 0
-1028 -1109 0
-1029 -1110 0
-1030 -1111 0
-1031 -1112 0
-1032 -1113 0
-1033 -1114 0
-1034 -1115 0
-1035 -1116 0
-1027 -1144 0
-1028 -1145 0
-1029 -1146 0
-1030 -1147 0
-1031 -1148 0
-1032 -1149 0
-1033 -1150 0
-1034 -1151 0
-1035 -1152 0
-1027 -1288 0
-1028 -1289 0
-1029 -1290 0
-1030 -1291 0
-1031 -1292 0
-1032 -1293 0
-1033 -1294 0
-1034 -1295 0
-1035 -1296 0
-1027 -1324 0
-1028 -1325 0
-1029 -1326 0
-1030 -1327 0
-1031 -1328 0
-1032 -1329 0
-1033 -1330 0
-1034 -1331 0
-1035 -1332 0
-1027 -1441 0
-1028 -1442 0
-1029 -1443 0
-1030 -1444 0
-1031 -1445 0
-1032 -1446 0
-1033 -1447 0
-1034 -1448 0
-1035 -1449 0
-1027 -1675 0
-1028 -1676 0
-1029 -1677 0
-1030 -1678 0
-1031 -1679 0
-1032 -1680 0
-1033 -1681 0
-1034 -1682 0
-1035 -1683 0
-1027 -2260 0
-1028 -2261 0
-1029 -2262 0
-1030 -2263 0
-1031 -2264 0
-1032 -2265 0
-1033 -2266 0
-1034 -2267 0
-1035 -2268 0
-1027 -2332 0
-1028 -2333 0
-1029 -2334 0
-1030 -2335 0
-1031 -2336 0
-1032 -2337 0
-1033 -2338 0
-1034 -2339 0
-1035 -2340 0
-1027 -2512 0
-1028 -2513 0
-1029 -2514 0
-1030 -2515 0
-1031 -2516 0
-1032 -2517 0
-1033 -2518 0
-1034 -2519 0
-1035 -2520 0
-1036 -1072 0
-1037 -1073 0
-1038 -1074 0
-1039 -1075 0
-1040 -1076 0
-1041 -1077 0
-1042 -1078 0
-1043 -1079 0
-1044 -1080 0
-1036 -1144 0
-1037 -1145 0
-1038 -1146 0
-1039 -1147 0
-1040 -1148 0
-1041 -1149 0
-1042 -1150 0
-1043 -1151 0
-1044 -1152 0
-1036 -1162 0
-1037 -1163 0
-1038 -1164 0
-1039 -1165 0
-1040 -1166 0
-1041 -1167 0
-1042 -1168 0
-1043 -1169 0
-1044 -1170 0
-1036 -1252 0
-1037 -1253 0
-1038 -1254 0
-1039 -1255 0
-1040 -1256 0
-1041 -1257 0
-1042 -1258 0
-1043 -1259 0
-1044 -1260 0
-1036 -1459 0
-1037 -1460 0
-1038 -1461 0
-1039 -1462 0
-1040 -1463 0
-1041 -1464 0
-1042 -1465 0
-1043 -1466 0
-1044 -1467 0
-1036 -1540 0
-1037 -1541 0
-1038 -1542 0
-1039 -1543 0
-1040 -1544 0
-1041 -1545 0
-1042 -1546 0
-1043 -1547 0
-1044 -1548 0
-1036 -1918 0
-1037 -1919 0
-1038 -1920 0
-1039 -1921 0
-1040 -1922 0
-1041 -1923 0
-1042 -1924 0
-1043 -1925 0
-1044 -1926 0
-1036 -2287 0
-1037 -2288 0
-1038 -2289 0
-1039 -2290 0
-1040 -2291 0
-1041 -2292 0
-1042 -2293 0
-1043 -2294 0
-1044 -2295 0
-1036 -2395 0
-1037 -2396 0
-1038 -2397 0
-1039 -2398 0
-1040 -2399 0
-1041 -2400 0
-1042 -2401 0
-1043 -2402 0
-1044 -2403 0
-1036 -2467 0
-1037 -2468 0
-1038 -2469 0
-1039 -2470 0
-1040 -2471 0
-1041 -2472 0
-1042 -2473 0
-1043 -2474 0
-1044 -2475 0
-1045 -1279 0
-1046 -1280 0
-1047 -1281 0
-1048 -1282 0
-1049 -1283 0
-1050 -1284 0
-1051 -1285 0
-1052 -1286 0
-1053 -1287 0
-1045 -1720 0
-1046 -1721 0
-1047 -1722 0
-1048 -1723 0
-1049 -1724 0
-1050 -1725 0
-1051 -1726 0
-1052 -1727 0
-1053 -1728 0
-1045 -2251 0
-1046 -2252 0
-1047 -2253 0
-1048 -2254 0
-1049 -2255 0
-1050 -2256 0
-1051 -2257 0
-1052 -2258 0
-1053 -2259 0
-1045 -2332 0
-1046 -2333 0
-1047 -2334 0
-1048 -2335 0
-1049 -2336 0
-1050 -2337 0
-1051 -2338 0
-1052 -2339 0
-1053 -2340 0
-1045 -2341 0
-1046 -2342 0
-1047 -2343 0
-1048 -2344 0
-1049 -2345 0
-1050 -2346 0
-1051 -2347 0
-1052 -2348 0
-1053 -2349 0
-1045 -2350 0
-1046 -2351 0
-1047 -2352 0
-1048 -2353 0
-1049 -2354 0
-1050 -2355 0
-1051 -2356 0
-1052 -2357 0
-1053 -2358 0
-1054 -1450 0
-1055 -1451 0
-1056 -1452 0
-1057 -1453 0
-1058 -1454 0
-1059 -1455 0
-1060 -1456 0
-1061 -1457 0
-1062 -1458 0
-1054 -1936 0
-1055 -1937 0
-1056 -1938 0
-1057 -1939 0
-1058 -1940 0
-1059 -1941 0
-1060 -1942 0
-1061 -1943 0
-1062 -1944 0
-1054 -2269 0
-1055 -2270 0
-1056 -2271 0
-1057 -2272 0
-1058 -2273 0
-1059 -2274 0
-1060 -2275 0
-1061 -2276 0
-1062 -2277 0
-1054 -2341 0
-1055 -2342 0
-1056 -2343 0
-1057 -2344 0
-1058 -2345 0
-1059 -2346 0
-1060 -2347 0
-1061 -2348 0
-1062 -2349 0
-1054 -2395 0
-1055 -2396 0
-1056 -2397 0
-1057 -2398 0
-1058 -2399 0
-1059 -2400 0
-1060 -2401 0
-1061 -2402 0
-1062 -2403 0
-1054 -2404 0
-1055 -2405 0
-1056 -2406 0
-1057 -2407 0
-1058 -2408 0
-1059 -2409 0
-1060 -2410 0
-1061 -2411 0
-1062 -2412 0
-1063 -1072 0
-1064 -1073 0
-1065 -1074 0
-1066 -1075 0
-1067 -1076 0
-1068 -1077 0
-1069 -1078 0
-1070 -1079 0
-1071 -1080 0
-1063 -1270 0
-1064 -1271 0
-1065 -1272 0
-1066 -1273 0
-1067 -1274 0
-1068 -1275 0
-1069 -1276 0
-1070 -1277 0
-1071 -1278 0
-1063 -1423 0
-1064 -1424 0
-1065 -1425 0
-1066 -1426 0
-1067 -1427 0
-1068 -1428 0
-1069 -1429 0
-1070 -1430 0
-1071 -1431 0
-1063 -2476 0
-1064 -2477 0
-1065 -2478 0
-1066 -2479 0
-1067 -2480 0
-1068 -2481 0
-1069 -2482 0
-1070 -2483 0
-1071 -2484 0
-1072 -1108 0
-1073 -1109 0
-1074 -1110 0
-1075 -1111 0
-1076 -1112 0
-1077 -1113 0
-1078 -1114 0
-1079 -1115 0
-1080 -1116 0
-1072 -1135 0
-1073 -1136 0
-1074 -1137 0
-1075 -1138 0
-1076 -1139 0
-1077 -1140 0
-1078 -1141 0
-1079 -1142 0
-1080 -1143 0
-1072 -1162 0
-1073 -1163 0
-1074 -1164 0
-1075 -1165 0
-1076 -1166 0
-1077 -1167 0
-1078 -1168 0
-1079 -1169 0
-1080 -1170 0
-1072 -1171 0
-1073 -1172 0
-1074 -1173 0
-1075 -1174 0
-1076 -1175 0
-1077 -1176 0
-1078 -1177 0
-1079 -1178 0
-1080 -1179 0
-1072 -1288 0
-1073 -1289 0
-1074 -1290 0
-1075 -1291 0
-1076 -1292 0
-1077 -1293 0
-1078 -1294 0
-1079 -1295 0
-1080 -1296 0
-1072 -1342 0
-1073 -1343 0
-1074 -1344 0
-1075 -1345 0
-1076 -1346 0
-1077 -1347 0
-1078 -1348 0
-1079 -1349 0
-1080 -1350 0
-1072 -1459 0
-1073 -1460 0
-1074 -1461 0
-1075 -1462 0
-1076 -1463 0
-1077 -1464 0
-1078 -1465 0
-1079 -1466 0
-1080 -1467 0
-1072 -1486 0
-1073 -1487 0
-1074 -1488 0
-1075 -1489 0
-1076 -1490 0
-1077 -1491 0
-1078 -1492 0
-1079 -1493 0
-1080 -1494 0
-1072 -1738 0
-1073 -1739 0
-1074 -1740 0
-1075 -1741 0
-1076 -1742 0
-1077 -1743 0
-1078 -1744 0
-1079 -1745 0
-1080 -1746 0
-1072 -1990 0
-1073 -1991 0
-1074 -1992 0
-1075 -1993 0
-1076 -1994 0
-1077 -1995 0
-1078 -1996 0
-1079 -1997 0
-1080 -1998 0
-1072 -2089 0
-1073 -2090 0
-1074 -2091 0
-1075 -2092 0
-1076 -2093 0
-1077 -2094 0
-1078 -2095 0
-1079 -2096 0
-1080 -2097 0
-1072 -2107 0
-1073 -2108 0
-1074 -2109 0
-1075 -2110 0
-1076 -2111 0
-1077 -2112 0
-1078 -2113 0
-1079 -2114 0
-1080 -2115 0
-1072 -2260 0
-1073 -2261 0
-1074 -2262 0
-1075 -2263 0
-1076 -2264 0
-1077 -2265 0
-1078 -2266 0
-1079 -2267 0
-1080 -2268 0
-1072 -2287 0
-1073 -2288 0
-1074 -2289 0
-1075 -2290 0
-1076 -2291 0
-1077 -2292 0
-1078 -2293 0
-1079 -2294 0
-1080 -2295 0
-1072 -2467 0
-1073 -2468 0
-1074 -2469 0
-1075 -2470 0
-1076 -2471 0
-1077 -2472 0
-1078 -2473 0
-1079 -2474 0
-1080 -2475 0
-1072 -2512 0
-1073 -2513 0
-1074 -2514 0
-1075 -2515 0
-1076 -2516 0
-1077 -2517 0
-1078 -2518 0
-1079 -2519 0
-1080 -2520 0
-1072 -2674 0
-1073 -2675 0
-1074 -2676 0
-1075 -2677 0
-1076 -2678 0
-1077 -2679 0
-1078 -2680 0
-1079 -2681 0
-1080 -2682 0
-1081 -1180 0
-1082 -1181 0
-1083 -1182 0
-1084 -1183 0
-1085 -1184 0
-1086 -1185 0
-1087 -1186 0
-1088 -1187 0
-1089 -1188 0
-1081 -1297 0
-1082 -1298 0
-1083 -1299 0
-1084 -1300 0
-1085 -1301 0
-1086 -1302 0
-1087 -1303 0
-1088 -1304 0
-1089 -1305 0
-1081 -1495 0
-1082 -1496 0
-1083 -1497 0
-1084 -1498 0
-1085 -1499 0
-1086 -1500 0
-1087 -1501 0
-1088 -1502 0
-1089 -1503 0
-1081 -1693 0
-1082 -1694 0
-1083 -1695 0
-1084 -1696 0
-1085 -1697 0
-1086 -1698 0
-1087 -1699 0
-1088 -1700 0
-1089 -1701 0
-1081 -1792 0
-1082 -1793 0
-1083 -1794 0
-1084 -1795 0
-1085 -1796 0
-1086 -1797 0
-1087 -1798 0
-1088 -1799 0
-1089 -1800 0
-1081 -1846 0
-1082 -1847 0
-1083 -1848 0
-1084 -1849 0
-1085 -1850 0
-1086 -1851 0
-1087 -1852 0
-1088 -1853 0
-1089 -1854 0
-1081 -1954 0
-1082 -1955 0
-1083 -1956 0
-1084 -1957 0
-1085 -1958 0
-1086 -1959 0
-1087 -1960 0
-1088 -1961 0
-1089 -1962 0
-1081 -2413 0
-1082 -2414 0
-1083 -2415 0
-1084 -2416 0
-1085 -2417 0
-1086 -2418 0
-1087 -2419 0
-1088 -2420 0
-1089 -2421 0
-1081 -2791 0
-1082 -2792 0
-1083 -2793 0
-1084 -2794 0
-1085 -2795 0
-1086 -2796 0
-1087 -2797 0
-1088 -2798 0
-1089 -2799 0
-1090 -1135 0
-1091 -1136 0
-1092 -1137 0
-1093 -1138 0
-1094 -1139 0
-1095 -1140 0
-1096 -1141 0
-1097 -1142 0
-1098 -1143 0
-1090 -1504 0
-1091 -1505 0
-1092 -1506 0
-1093 -1507 0
-1094 -1508 0
-1095 -1509 0
-1096 -1510 0
-1097 -1511 0
-1098 -1512 0
-1090 -1630 0
-1091 -1631 0
-1092 -1632 0
-1093 -1633 0
-1094 -1634 0
-1095 -1635 0
-1096 -1636 0
-1097 -1637 0
-1098 -1638 0
-1090 -1648 0
-1091 -1649 0
-1092 -1650 0
-1093 -1651 0
-1094 -1652 0
-1095 -1653 0
-1096 -1654 0
-1097 -1655 0
-1098 -1656 0
-1090 -1666 0
-1091 -1667 0
-1092 -1668 0
-1093 -1669 0
-1094 -1670 0
-1095 -1671 0
-1096 -1672 0
-1097 -1673 0
-1098 -1674 0
-1090 -1756 0
-1091 -1757 0
-1092 -1758 0
-1093 -1759 0
-1094 -1760 0
-1095 -1761 0
-1096 -1762 0
-1097 -1763 0
-1098 -1764 0
-1090 -1792 0
-1091 -1793 0
-1092 -1794 0
-1093 -1795 0
-1094 -1796 0
-1095 -1797 0
-1096 -1798 0
-1097 -1799 0
-1098 -1800 0
-1090 -1963 0
-1091 -1964 0
-1092 -1965 0
-1093 -1966 0
-1094 -1967 0
-1095 -1968 0
-1096 -1969 0
-1097 -1970 0
-1098 -1971 0
-1090 -2098 0
-1091 -2099 0
-1092 -2100 0
-1093 -2101 0
-1094 -2102 0
-1095 -2103 0
-1096 -2104 0
-1097 -2105 0
-1098 -2106 0
-1090 -2179 0
-1091 -2180 0
-1092 -2181 0
-1093 -2182 0
-1094 -2183 0
-1095 -2184 0
-1096 -2185 0
-1097 -2186 0
-1098 -2187 0
-1090 -2260 0
-1091 -2261 0
-1092 -2262 0
-1093 -2263 0
-1094 -2264 0
-1095 -2265 0
-1096 -2266 0
-1097 -2267 0
-1098 -2268 0
-1090 -2269 0
-1091 -2270 0
-1092 -2271 0
-1093 -2272 0
-1094 -2273 0
-1095 -2274 0
-1096 -2275 0
-1097 -2276 0
-1098 -2277 0
-1090 -2377 0
-1091 -2378 0
-1092 -2379 0
-1093 -2380 0
-1094 -2381 0
-1095 -2382 0
-1096 -2383 0
-1097 -2384 0
-1098 -2385 0
-1090 -2413 0
-1091 -2414 0
-1092 -2415 0
-1093 -2416 0
-1094 -2417 0
-1095 -2418 0
-1096 -2419 0
-1097 -2420 0
-1098 -2421 0
-1090 -2431 0
-1091 -2432 0
-1092 -2433 0
-1093 -2434 0
-1094 -2435 0
-1095 -2436 0
-1096 -2437 0
-1097 -2438 0
-1098 -2439 0
-1099 -1189 0
-1100 -1190 0
-1101 -1191 0
-1102 -1192 0
-1103 -1193 0
-1104 -1194 0
-1105 -1195 0
-1106 -1196 0
-1107 -1197 0
-1099 -1360 0
-1100 -1361 0
-1101 -1362 0
-1102 -1363 0
-1103 -1364 0
-1104 -1365 0
-1105 -1366 0
-1106 -1367 0
-1107 -1368 0
-1099 -1522 0
-1100 -1523 0
-1101 -1524 0
-1102 -1525 0
-1103 -1526 0
-1104 -1527 0
-1105 -1528 0
-1106 -1529 0
-1107 -1530 0
-1099 -1621 0
-1100 -1622 0
-1101 -1623 0
-1102 -1624 0
-1103 -1625 0
-1104 -1626 0
-1105 -1627 0
-1106 -1628 0
-1107 -1629 0
-1099 -1756 0
-1100 -1757 0
-1101 -1758 0
-1102 -1759 0
-1103 -1760 0
-1104 -1761 0
-1105 -1762 0
-1106 -1763 0
-1107 -1764 0
-1099 -1909 0
-1100 -1910 0
-1101 -1911 0
-1102 -1912 0
-1103 -1913 0
-1104 -1914 0
-1105 -1915 0
-1106 -1916 0
-1107 -1917 0
-1099 -1981 0
-1100 -1982 0
-1101 -1983 0
-1102 -1984 0
-1103 -1985 0
-1104 -1986 0
-1105 -1987 0
-1106 -1988 0
-1107 -1989 0
-1099 -2359 0
-1100 -2360 0
-1101 -2361 0
-1102 -2362 0
-1103 -2363 0
-1104 -2364 0
-1105 -2365 0
-1106 -2366 0
-1107 -2367 0
-1099 -2737 0
-1100 -2738 0
-1101 -2739 0
-1102 -2740 0
-1103 -2741 0
-1104 -2742 0
-1105 -2743 0
-1106 -2744 0
-1107 -2745 0
-1108 -1162 0
-1109 -1163 0
-1110 -1164 0
-1111 -1165 0
-1112 -1166 0
-1113 -1167 0
-1114 -1168 0
-1115 -1169 0
-1116 -1170 0
-1108 -1234 0
-1109 -1235 0
-1110 -1236 0
-1111 -1237 0
-1112 -1238 0
-1113 -1239 0
-1114 -1240 0
-1115 -1241 0
-1116 -1242 0
-1108 -1342 0
-1109 -1343 0
-1110 -1344 0
-1111 -1345 0
-1112 -1346 0
-1113 -1347 0
-1114 -1348 0
-1115 -1349 0
-1116 -1350 0
-1108 -1387 0
-1109 -1388 0
-1110 -1389 0
-1111 -1390 0
-1112 -1391 0
-1113 -1392 0
-1114 -1393 0
-1115 -1394 0
-1116 -1395 0
-1108 -1675 0
-1109 -1676 0
-1110 -1677 0
-1111 -1678 0
-1112 -1679 0
-1113 -1680 0
-1114 -1681 0
-1115 -1682 0
-1116 -1683 0
-1108 -1738 0
-1109 -1739 0
-1110 -1740 0
-1111 -1741 0
-1112 -1742 0
-1113 -1743 0
-1114 -1744 0
-1115 -1745 0
-1116 -1746 0
-1108 -2305 0
-1109 -2306 0
-1110 -2307 0
-1111 -2308 0
-1112 -2309 0
-1113 -2310 0
-1114 -2311 0
-1115 -2312 0
-1116 -2313 0
-1108 -2512 0
-1109 -2513 0
-1110 -2514 0
-1111 -2515 0
-1112 -2516 0
-1113 -2517 0
-1114 -2518 0
-1115 -2519 0
-1116 -2520 0
-1117 -1171 0
-1118 -1172 0
-1119 -1173 0
-1120 -1174 0
-1121 -1175 0
-1122 -1176 0
-1123 -1177 0
-1124 -1178 0
-1125 -1179 0
-1117 -1351 0
-1118 -1352 0
-1119 -1353 0
-1120 -1354 0
-1121 -1355 0
-1122 -1356 0
-1123 -1357 0
-1124 -1358 0
-1125 -1359 0
-1117 -1765 0
-1118 -1766 0
-1119 -1767 0
-1120 -1768 0
-1121 -1769 0
-1122 -1770 0
-1123 -1771 0
-1124 -1772 0
-1125 -1773 0
-1117 -1855 0
-1118 -1856 0
-1119 -1857 0
-1120 -1858 0
-1121 -1859 0
-1122 -1860 0
-1123 -1861 0
-1124 -1862 0
-1125 -1863 0
-1117 -1882 0
-1118 -1883 0
-1119 -1884 0
-1120 -1885 0
-1121 -1886 0
-1122 -1887 0
-1123 -1888 0
-1124 -1889 0
-1125 -1890 0
-1117 -1891 0
-1118 -1892 0
-1119 -1893 0
-1120 -1894 0
-1121 -1895 0
-1122 -1896 0
-1123 -1897 0
-1124 -1898 0
-1125 -1899 0
-1117 -1954 0
-1118 -1955 0
-1119 -1956 0
-1120 -1957 0
-1121 -1958 0
-1122 -1959 0
-1123 -1960 0
-1124 -1961 0
-1125 -1962 0
-1117 -1981 0
-1118 -1982 0
-1119 -1983 0
-1120 -1984 0
-1121 -1985 0
-1122 -1986 0
-1123 -1987 0
-1124 -1988 0
-1125 -1989 0
-1117 -2080 0
-1118 -2081 0
-1119 -2082 0
-1120 -2083 0
-1121 -2084 0
-1122 -2085 0
-1123 -2086 0
-1124 -2087 0
-1125 -2088 0
-1117 -2206 0
-1118 -2207 0
-1119 -2208 0
-1120 -2209 0
-1121 -2210 0
-1122 -2211 0
-1123 -2212 0
-1124 -2213 0
-1125 -2214 0
-1117 -2251 0
-1118 -2252 0
-1119 -2253 0
-1120 -2254 0
-1121 -2255 0
-1122 -2256 0
-1123 -2257 0
-1124 -2258 0
-1125 -2259 0
-1117 -2287 0
-1118 -2288 0
-1119 -2289 0
-1120 -2290 0
-1121 -2291 0
-1122 -2292 0
-1123 -2293 0
-1124 -2294 0
-1125 -2295 0
-1117 -2359 0
-1118 -2360 0
-1119 -2361 0
-1120 -2362 0
-1121 -2363 0
-1122 -2364 0
-1123 -2365 0
-1124 -2366 0
-1125 -2367 0
-1117 -2386 0
-1118 -2387 0
-1119 -2388 0
-1120 -2389 0
-1121 -2390 0
-1122 -2391 0
-1123 -2392 0
-1124 -2393 0
-1125 -2394 0
-1117 -2422 0
-1118 -2423 0
-1119 -2424 0
-1120 -2425 0
-1121 -2426 0
-1122 -2427 0
-1123 -2428 0
-1124 -2429 0
-1125 -2430 0
-1126 -1144 0
-1127 -1145 0
-1128 -1146 0
-1129 -1147 0
-1130 -1148 0
-1131 -1149 0
-1132 -1150 0
-1133 -1151 0
-1134 -1152 0
-1126 -1288 0
-1127 -1289 0
-1128 -1290 0
-1129 -1291 0
-1130 -1292 0
-1131 -1293 0
-1132 -1294 0
-1133 -1295 0
-1134 -1296 0
-1126 -1324 0
-1127 -1325 0
-1128 -1326 0
-1129 -1327 0
-1130 -1328 0
-1131 -1329 0
-1132 -1330 0
-1133 -1331 0
-1134 -1332 0
-1126 -1432 0
-1127 -1433 0
-1128 -1434 0
-1129 -1435 0
-1130 -1436 0
-1131 -1437 0
-1132 -1438 0
-1133 -1439 0
-1134 -1440 0
-1126 -1531 0
-1127 -1532 0
-1128 -1533 0
-1129 -1534 0
-1130 -1535 0
-1131 -1536 0
-1132 -1537 0
-1133 -1538 0
-1134 -1539 0
-1126 -1657 0
-1127 -1658 0
-1128 -1659 0
-1129 -1660 0
-1130 -1661 0
-1131 -1662 0
-1132 -1663 0
-1133 -1664 0
-1134 -1665 0
-1126 -1684 0
-1127 -1685 0
-1128 -1686 0
-1129 -1687 0
-1130 -1688 0
-1131 -1689 0
-1132 -1690 0
-1133 -1691 0
-1134 -1692 0
-1126 -1801 0
-1127 -1802 0
-1128 -1803 0
-1129 -1804 0
-1130 -1805 0
-1131 -1806 0
-1132 -1807 0
-1133 -1808 0
-1134 -1809 0
-1126 -1909 0
-1127 -1910 0
-1128 -1911 0
-1129 -1912 0
-1130 -1913 0
-1131 -1914 0
-1132 -1915 0
-1133 -1916 0
-1134 -1917 0
-1126 -1981 0
-1127 -1982 0
-1128 -1983 0
-1129 -1984 0
-1130 -1985 0
-1131 -1986 0
-1132 -1987 0
-1133 -1988 0
-1134 -1989 0
-1126 -2053 0
-1127 -2054 0
-1128 -2055 0
-1129 -2056 0
-1130 -2057 0
-1131 -2058 0
-1132 -2059 0
-1133 -2060 0
-1134 -2061 0
-1126 -2314 0
-1127 -2315 0
-1128 -2316 0
-1129 -2317 0
-1130 -2318 0
-1131 -2319 0
-1132 -2320 0
-1133 -2321 0
-1134 -2322 0
-1126 -2422 0
-1127 -2423 0
-1128 -2424 0
-1129 -2425 0
-1130 -2426 0
-1131 -2427 0
-1132 -2428 0
-1133 -2429 0
-1134 -2430 0
-1126 -2449 0
-1127 -2450 0
-1128 -2451 0
-1129 -2452 0
-1130 -2453 0
-1131 -2454 0
-1132 -2455 0
-1133 -2456 0
-1134 -2457 0
-1126 -2512 0
-1127 -2513 0
-1128 -2514 0
-1129 -2515 0
-1130 -2516 0
-1131 -2517 0
-1132 -2518 0
-1133 -2519 0
-1134 -2520 0
-1135 -1333 0
-1136 -1334 0
-1137 -1335 0
-1138 -1336 0
-1139 -1337 0
-1140 -1338 0
-1141 -1339 0
-1142 -1340 0
-1143 -1341 0
-1135 -1432 0
-1136 -1433 0
-1137 -1434 0
-1138 -1435 0
-1139 -1436 0
-1140 -1437 0
-1141 -1438 0
-1142 -1439 0
-1143 -1440 0
-1135 -1675 0
-1136 -1676 0
-1137 -1677 0
-1138 -1678 0
-1139 -1679 0
-1140 -1680 0
-1141 -1681 0
-1142 -1682 0
-1143 -1683 0
-1135 -1747 0
-1136 -1748 0
-1137 -1749 0
-1138 -1750 0
-1139 -1751 0
-1140 -1752 0
-1141 -1753 0
-1142 -1754 0
-1143 -1755 0
-1135 -2044 0
-1136 -2045 0
-1137 -2046 0
-1138 -2047 0
-1139 -2048 0
-1140 -2049 0
-1141 -2050 0
-1142 -2051 0
-1143 -2052 0
-1135 -2323 0
-1136 -2324 0
-1137 -2325 0
-1138 -2326 0
-1139 -2327 0
-1140 -2328 0
-1141 -2329 0
-1142 -2330 0
-1143 -2331 0
-1135 -2377 0
-1136 -2378 0
-1137 -2379 0
-1138 -2380 0
-1139 -2381 0
-1140 -2382 0
-1141 -2383 0
-1142 -2384 0
-1143 -2385 0
-1144 -1153 0
-1145 -1154 0
-1146 -1155 0
-1147 -1156 0
-1148 -1157 0
-1149 -1158 0
-1150 -1159 0
-1151 -1160 0
-1152 -1161 0
-1144 -1252 0
-1145 -1253 0
-1146 -1254 0
-1147 -1255 0
-1148 -1256 0
-1149 -1257 0
-1150 -1258 0
-1151 -1259 0
-1152 -1260 0
-1144 -1261 0
-1145 -1262 0
-1146 -1263 0
-1147 -1264 0
-1148 -1265 0
-1149 -1266 0
-1150 -1267 0
-1151 -1268 0
-1152 -1269 0
-1144 -1342 0
-1145 -1343 0
-1146 -1344 0
-1147 -1345 0
-1148 -1346 0
-1149 -1347 0
-1150 -1348 0
-1151 -1349 0
-1152 -1350 0
-1144 -1360 0
-1145 -1361 0
-1146 -1362 0
-1147 -1363 0
-1148 -1364 0
-1149 -1365 0
-1150 -1366 0
-1151 -1367 0
-1152 -1368 0
-1144 -1441 0
-1145 -1442 0
-1146 -1443 0
-1147 -1444 0
-1148 -1445 0
-1149 -1446 0
-1150 -1447 0
-1151 -1448 0
-1152 -1449 0
-1144 -1486 0
-1145 -1487 0
-1146 -1488 0
-1147 -1489 0
-1148 -1490 0
-1149 -1491 0
-1150 -1492 0
-1151 -1493 0
-1152 -1494 0
-1144 -1495 0
-1145 -1496 0
-1146 -1497 0
-1147 -1498 0
-1148 -1499 0
-1149 -1500 0
-1150 -1501 0
-1151 -1502 0
-1152 -1503 0
-1153 -1315 0
-1154 -1316 0
-1155 -1317 0
-1156 -1318 0
-1157 -1319 0
-1158 -1320 0
-1159 -1321 0
-1160 -1322 0
-1161 -1323 0
-1153 -1432 0
-1154 -1433 0
-1155 -1434 0
-1156 -1435 0
-1157 -1436 0
-1158 -1437 0
-1159 -1438 0
-1160 -1439 0
-1161 -1440 0
-1153 -1459 0
-1154 -1460 0
-1155 -1461 0
-1156 -1462 0
-1157 -1463 0
-1158 -1464 0
-1159 -1465 0
-1160 -1466 0
-1161 -1467 0
-1153 -1540 0
-1154 -1541 0
-1155 -1542 0
-1156 -1543 0
-1157 -1544 0
-1158 -1545 0
-1159 -1546 0
-1160 -1547 0
-1161 -1548 0
-1153 -1693 0
-1154 -1694 0
-1155 -1695 0
-1156 -1696 0
-1157 -1697 0
-1158 -1698 0
-1159 -1699 0
-1160 -1700 0
-1161 -1701 0
-1153 -1792 0
-1154 -1793 0
-1155 -1794 0
-1156 -1795 0
-1157 -1796 0
-1158 -1797 0
-1159 -1798 0
-1160 -1799 0
-1161 -1800 0
-1153 -1873 0
-1154 -1874 0
-1155 -1875 0
-1156 -1876 0
-1157 -1877 0
-1158 -1878 0
-1159 -1879 0
-1160 -1880 0
-1161 -1881 0
-1153 -1900 0
-1154 -1901 0
-1155 -1902 0
-1156 -1903 0
-1157 -1904 0
-1158 -1905 0
-1159 -1906 0
-1160 -1907 0
-1161 -1908 0
-1153 -1999 0
-1154 -2000 0
-1155 -2001 0
-1156 -2002 0
-1157 -2003 0
-1158 -2004 0
-1159 -2005 0
-1160 -2006 0
-1161 -2007 0
-1153 -2044 0
-1154 -2045 0
-1155 -2046 0
-1156 -2047 0
-1157 -2048 0
-1158 -2049 0
-1159 -2050 0
-1160 -2051 0
-1161 -2052 0
-1153 -2323 0
-1154 -2324 0
-1155 -2325 0
-1156 -2326 0
-1157 -2327 0
-1158 -2328 0
-1159 -2329 0
-1160 -2330 0
-1161 -2331 0
-1153 -2377 0
-1154 -2378 0
-1155 -2379 0
-1156 -2380 0
-1157 -2381 0
-1158 -2382 0
-1159 -2383 0
-1160 -2384 0
-1161 -2385 0
-1153 -2467 0
-1154 -2468 0
-1155 -2469 0
-1156 -2470 0
-1157 -2471 0
-1158 -2472 0
-1159 -2473 0
-1160 -2474 0
-1161 -2475 0
-1153 -2503 0
-1154 -2504 0
-1155 -2505 0
-1156 -2506 0
-1157 -2507 0
-1158 -2508 0
-1159 -2509 0
-1160 -2510 0
-1161 -2511 0
-1162 -1243 0
-1163 -1244 0
-1164 -1245 0
-1165 -1246 0
-1166 -1247 0
-1167 -1248 0
-1168 -1249 0
-1169 -1250 0
-1170 -1251 0
-1162 -1486 0
-1163 -1487 0
-1164 -1488 0
-1165 -1489 0
-1166 -1490 0
-1167 -1491 0
-1168 -1492 0
-1169 -1493 0
-1170 -1494 0
-1162 -1558 0
-1163 -1559 0
-1164 -1560 0
-1165 -1561 0
-1166 -1562 0
-1167 -1563 0
-1168 -1564 0
-1169 -1565 0
-1170 -1566 0
-1162 -1918 0
-1163 -1919 0
-1164 -1920 0
-1165 -1921 0
-1166 -1922 0
-1167 -1923 0
-1168 -1924 0
-1169 -1925 0
-1170 -1926 0
-1162 -1990 0
-1163 -1991 0
-1164 -1992 0
-1165 -1993 0
-1166 -1994 0
-1167 -1995 0
-1168 -1996 0
-1169 -1997 0
-1170 -1998 0
-1162 -2305 0
-1163 -2306 0
-1164 -2307 0
-1165 -2308 0
-1166 -2309 0
-1167 -2310 0
-1168 -2311 0
-1169 -2312 0
-1170 -2313 0
-1162 -2467 0
-1163 -2468 0
-1164 -2469 0
-1165 -2470 0
-1166 -2471 0
-1167 -2472 0
-1168 -2473 0
-1169 -2474 0
-1170 -2475 0
-1171 -1432 0
-1172 -1433 0
-1173 -1434 0
-1174 -1435 0
-1175 -1436 0
-1176 -1437 0
-1177 -1438 0
-1178 -1439 0
-1179 -1440 0
-1171 -1477 0
-1172 -1478 0
-1173 -1479 0
-1174 -1480 0
-1175 -1481 0
-1176 -1482 0
-1177 -1483 0
-1178 -1484 0
-1179 -1485 0
-1171 -1918 0
-1172 -1919 0
-1173 -1920 0
-1174 -1921 0
-1175 -1922 0
-1176 -1923 0
-1177 -1924 0
-1178 -1925 0
-1179 -1926 0
-1171 -2017 0
-1172 -2018 0
-1173 -2019 0
-1174 -2020 0
-1175 -2021 0
-1176 -2022 0
-1177 -2023 0
-1178 -2024 0
-1179 -2025 0
-1171 -2053 0
-1172 -2054 0
-1173 -2055 0
-1174 -2056 0
-1175 -2057 0
-1176 -2058 0
-1177 -2059 0
-1178 -2060 0
-1179 -2061 0
-1171 -2314 0
-1172 -2315 0
-1173 -2316 0
-1174 -2317 0
-1175 -2318 0
-1176 -2319 0
-1177 -2320 0
-1178 -2321 0
-1179 -2322 0
-1171 -2422 0
-1172 -2423 0
-1173 -2424 0
-1174 -2425 0
-1175 -2426 0
-1176 -2427 0
-1177 -2428 0
-1178 -2429 0
-1179 -2430 0
-1180 -1189 0
-1181 -1190 0
-1182 -1191 0
-1183 -1192 0
-1184 -1193 0
-1185 -1194 0
-1186 -1195 0
-1187 -1196 0
-1188 -1197 0
-1180 -1234 0
-1181 -1235 0
-1182 -1236 0
-1183 -1237 0
-1184 -1238 0
-1185 -1239 0
-1186 -1240 0
-1187 -1241 0
-1188 -1242 0
-1180 -1324 0
-1181 -1325 0
-1182 -1326 0
-1183 -1327 0
-1184 -1328 0
-1185 -1329 0
-1186 -1330 0
-1187 -1331 0
-1188 -1332 0
-1180 -1576 0
-1181 -1577 0
-1182 -1578 0
-1183 -1579 0
-1184 -1580 0
-1185 -1581 0
-1186 -1582 0
-1187 -1583 0
-1188 -1584 0
-1180 -2260 0
-1181 -2261 0
-1182 -2262 0
-1183 -2263 0
-1184 -2264 0
-1185 -2265 0
-1186 -2266 0
-1187 -2267 0
-1188 -2268 0
-1180 -2377 0
-1181 -2378 0
-1182 -2379 0
-1183 -2380 0
-1184 -2381 0
-1185 -2382 0
-1186 -2383 0
-1187 -2384 0
-1188 -2385 0
-1180 -2494 0
-1181 -2495 0
-1182 -2496 0
-1183 -2497 0
-1184 -2498 0
-1185 -2499 0
-1186 -2500 0
-1187 -2501 0
-1188 -2502 0
-1180 -2719 0
-1181 -2720 0
-1182 -2721 0
-1183 -2722 0
-1184 -2723 0
-1185 -2724 0
-1186 -2725 0
-1187 -2726 0
-1188 -2727 0
-1189 -1243 0
-1190 -1244 0
-1191 -1245 0
-1192 -1246 0
-1193 -1247 0
-1194 -1248 0
-1195 -1249 0
-1196 -1250 0
-1197 -1251 0
-1189 -1405 0
-1190 -1406 0
-1191 -1407 0
-1192 -1408 0
-1193 -1409 0
-1194 -1410 0
-1195 -1411 0
-1196 -1412 0
-1197 -1413 0
-1189 -1540 0
-1190 -1541 0
-1191 -1542 0
-1192 -1543 0
-1193 -1544 0
-1194 -1545 0
-1195 -1546 0
-1196 -1547 0
-1197 -1548 0
-1189 -2287 0
-1190 -2288 0
-1191 -2289 0
-1192 -2290 0
-1193 -2291 0
-1194 -2292 0
-1195 -2293 0
-1196 -2294 0
-1197 -2295 0
-1189 -2422 0
-1190 -2423 0
-1191 -2424 0
-1192 -2425 0
-1193 -2426 0
-1194 -2427 0
-1195 -2428 0
-1196 -2429 0
-1197 -2430 0
-1189 -2521 0
-1190 -2522 0
-1191 -2523 0
-1192 -2524 0
-1193 -2525 0
-1194 -2526 0
-1195 -2527 0
-1196 -2528 0
-1197 -2529 0
-1189 -2728 0
-1190 -2729 0
-1191 -2730 0
-1192 -2731 0
-1193 -2732 0
-1194 -2733 0
-1195 -2734 0
-1196 -2735 0
-1197 -2736 0
-1198 -1234 0
-1199 -1235 0
-1200 -1236 0
-1201 -1237 0
-1202 -1238 0
-1203 -1239 0
-1204 -1240 0
-1205 -1241 0
-1206 -1242 0
-1198 -1396 0
-1199 -1397 0
-1200 -1398 0
-1201 -1399 0
-1202 -1400 0
-1203 -1401 0
-1204 -1402 0
-1205 -1403 0
-1206 -1404 0
-1198 -1927 0
-1199 -1928 0
-1200 -1929 0
-1201 -1930 0
-1202 -1931 0
-1203 -1932 0
-1204 -1933 0
-1205 -1934 0
-1206 -1935 0
-1198 -1999 0
-1199 -2000 0
-1200 -2001 0
-1201 -2002 0
-1202 -2003 0
-1203 -2004 0
-1204 -2005 0
-1205 -2006 0
-1206 -2007 0
-1198 -2422 0
-1199 -2423 0
-1200 -2424 0
-1201 -2425 0
-1202 -2426 0
-1203 -2427 0
-1204 -2428 0
-1205 -2429 0
-1206 -2430 0
-1198 -2512 0
-1199 -2513 0
-1200 -2514 0
-1201 -2515 0
-1202 -2516 0
-1203 -2517 0
-1204 -2518 0
-1205 -2519 0
-1206 -2520 0
-1198 -2764 0
-1199 -2765 0
-1200 -2766 0
-1201 -2767 0
-1202 -2768 0
-1203 -2769 0
-1204 -2770 0
-1205 -2771 0
-1206 -2772 0
-1207 -1243 0
-1208 -1244 0
-1209 -1245 0
-1210 -1246 0
-1211 -1247 0
-1212 -1248 0
-1213 -1249 0
-1214 -1250 0
-1215 -1251 0
-1207 -1567 0
-1208 -1568 0
-1209 -1569 0
-1210 -1570 0
-1211 -1571 0
-1212 -1572 0
-1213 -1573 0
-1214 -1574 0
-1215 -1575 0
-1207 -1702 0
-1208 -1703 0
-1209 -1704 0
-1210 -1705 0
-1211 -1706 0
-1212 -1707 0
-1213 -1708 0
-1214 -1709 0
-1215 -1710 0
-1207 -1801 0
-1208 -1802 0
-1209 -1803 0
-1210 -1804 0
-1211 -1805 0
-1212 -1806 0
-1213 -1807 0
-1214 -1808 0
-1215 -1809 0
-1207 -2377 0
-1208 -2378 0
-1209 -2379 0
-1210 -2380 0
-1211 -2381 0
-1212 -2382 0
-1213 -2383 0
-1214 -2384 0
-1215 -2385 0
-1207 -2467 0
-1208 -2468 0
-1209 -2469 0
-1210 -2470 0
-1211 -2471 0
-1212 -2472 0
-1213 -2473 0
-1214 -2474 0
-1215 -2475 0
-1207 -2890 0
-1208 -2891 0
-1209 -2892 0
-1210 -2893 0
-1211 -2894 0
-1212 -2895 0
-1213 -2896 0
-1214 -2897 0
-1215 -2898 0
-1216 -1450 0
-1217 -1451 0
-1218 -1452 0
-1219 -1453 0
-1220 -1454 0
-1221 -1455 0
-1222 -1456 0
-1223 -1457 0
-1224 -1458 0
-1216 -1657 0
-1217 -1658 0
-1218 -1659 0
-1219 -1660 0
-1220 -1661 0
-1221 -1662 0
-1222 -1663 0
-1223 -1664 0
-1224 -1665 0
-1216 -1666 0
-1217 -1667 0
-1218 -1668 0
-1219 -1669 0
-1220 -1670 0
-1221 -1671 0
-1222 -1672 0
-1223 -1673 0
-1224 -1674 0
-1216 -1756 0
-1217 -1757 0
-1218 -1758 0
-1219 -1759 0
-1220 -1760 0
-1221 -1761 0
-1222 -1762 0
-1223 -1763 0
-1224 -1764 0
-1216 -1765 0
-1217 -1766 0
-1218 -1767 0
-1219 -1768 0
-1220 -1769 0
-1221 -1770 0
-1222 -1771 0
-1223 -1772 0
-1224 -1773 0
-1216 -1936 0
-1217 -1937 0
-1218 -1938 0
-1219 -1939 0
-1220 -1940 0
-1221 -1941 0
-1222 -1942 0
-1223 -1943 0
-1224 -1944 0
-1216 -1981 0
-1217 -1982 0
-1218 -1983 0
-1219 -1984 0
-1220 -1985 0
-1221 -1986 0
-1222 -1987 0
-1223 -1988 0
-1224 -1989 0
-1216 -2179 0
-1217 -2180 0
-1218 -2181 0
-1219 -2182 0
-1220 -2183 0
-1221 -2184 0
-1222 -2185 0
-1223 -2186 0
-1224 -2187 0
-1216 -2701 0
-1217 -2702 0
-1218 -2703 0
-1219 -2704 0
-1220 -2705 0
-1221 -2706 0
-1222 -2707 0
-1223 -2708 0
-1224 -2709 0
-1216 -2719 0
-1217 -2720 0
-1218 -2721 0
-1219 -2722 0
-1220 -2723 0
-1221 -2724 0
-1222 -2725 0
-1223 -2726 0
-1224 -2727 0
-1225 -1279 0
-1226 -1280 0
-1227 -1281 0
-1228 -1282 0
-1229 -1283 0
-1230 -1284 0
-1231 -1285 0
-1232 -1286 0
-1233 -1287 0
-1225 -1720 0
-1226 -1721 0
-1227 -1722 0
-1228 -1723 0
-1229 -1724 0
-1230 -1725 0
-1231 -1726 0
-1232 -1727 0
-1233 -1728 0
-1225 -1792 0
-1226 -1793 0
-1227 -1794 0
-1228 -1795 0
-1229 -1796 0
-1230 -1797 0
-1231 -1798 0
-1232 -1799 0
-1233 -1800 0
-1225 -1873 0
-1226 -1874 0
-1227 -1875 0
-1228 -1876 0
-1229 -1877 0
-1230 -1878 0
-1231 -1879 0
-1232 -1880 0
-1233 -1881 0
-1225 -1891 0
-1226 -1892 0
-1227 -1893 0
-1228 -1894 0
-1229 -1895 0
-1230 -1896 0
-1231 -1897 0
-1232 -1898 0
-1233 -1899 0
-1225 -1954 0
-1226 -1955 0
-1227 -1956 0
-1228 -1957 0
-1229 -1958 0
-1230 -1959 0
-1231 -1960 0
-1232 -1961 0
-1233 -1962 0
-1225 -1963 0
-1226 -1964 0
-1227 -1965 0
-1228 -1966 0
-1229 -1967 0
-1230 -1968 0
-1231 -1969 0
-1232 -1970 0
-1233 -1971 0
-1225 -2206 0
-1226 -2207 0
-1227 -2208 0
-1228 -2209 0
-1229 -2210 0
-1230 -2211 0
-1231 -2212 0
-1232 -2213 0
-1233 -2214 0
-1225 -2683 0
-1226 -2684 0
-1227 -2685 0
-1228 -2686 0
-1229 -2687 0
-1230 -2688 0
-1231 -2689 0
-1232 -2690 0
-1233 -2691 0
-1225 -2728 0
-1226 -2729 0
-1227 -2730 0
-1228 -2731 0
-1229 -2732 0
-1230 -2733 0
-1231 -2734 0
-1232 -2735 0
-1233 -2736 0
-1234 -1243 0
-1235 -1244 0
-1236 -1245 0
-1237 -1246 0
-1238 -1247 0
-1239 -1248 0
-1240 -1249 0
-1241 -1250 0
-1242 -1251 0
-1234 -1324 0
-1235 -1325 0
-1236 -1326 0
-1237 -1327 0
-1238 -1328 0
-1239 -1329 0
-1240 -1330 0
-1241 -1331 0
-1242 -1332 0
-1234 -1387 0
-1235 -1388 0
-1236 -1389 0
-1237 -1390 0
-1238 -1391 0
-1239 -1392 0
-1240 -1393 0
-1241 -1394 0
-1242 -1395 0
-1234 -1405 0
-1235 -1406 0
-1236 -1407 0
-1237 -1408 0
-1238 -1409 0
-1239 -1410 0
-1240 -1411 0
-1241 -1412 0
-1242 -1413 0
-1234 -1432 0
-1235 -1433 0
-1236 -1434 0
-1237 -1435 0
-1238 -1436 0
-1239 -1437 0
-1240 -1438 0
-1241 -1439 0
-1242 -1440 0
-1234 -1486 0
-1235 -1487 0
-1236 -1488 0
-1237 -1489 0
-1238 -1490 0
-1239 -1491 0
-1240 -1492 0
-1241 -1493 0
-1242 -1494 0
-1234 -1495 0
-1235 -1496 0
-1236 -1497 0
-1237 -1498 0
-1238 -1499 0
-1239 -1500 0
-1240 -1501 0
-1241 -1502 0
-1242 -1503 0
-1234 -1504 0
-1235 -1505 0
-1236 -1506 0
-1237 -1507 0
-1238 -1508 0
-1239 -1509 0
-1240 -1510 0
-1241 -1511 0
-1242 -1512 0
-1234 -1513 0
-1235 -1514 0
-1236 -1515 0
-1237 -1516 0
-1238 -1517 0
-1239 -1518 0
-1240 -1519 0
-1241 -1520 0
-1242 -1521 0
-1234 -1675 0
-1235 -1676 0
-1236 -1677 0
-1237 -1678 0
-1238 -1679 0
-1239 -1680 0
-1240 -1681 0
-1241 -1682 0
-1242 -1683 0
-1234 -1738 0
-1235 -1739 0
-1236 -1740 0
-1237 -1741 0
-1238 -1742 0
-1239 -1743 0
-1240 -1744 0
-1241 -1745 0
-1242 -1746 0
-1234 -1747 0
-1235 -1748 0
-1236 -1749 0
-1237 -1750 0
-1238 -1751 0
-1239 -1752 0
-1240 -1753 0
-1241 -1754 0
-1242 -1755 0
-1234 -2323 0
-1235 -2324 0
-1236 -2325 0
-1237 -2326 0
-1238 -2327 0
-1239 -2328 0
-1240 -2329 0
-1241 -2330 0
-1242 -2331 0
-1234 -2386 0
-1235 -2387 0
-1236 -2388 0
-1237 -2389 0
-1238 -2390 0
-1239 -2391 0
-1240 -2392 0
-1241 -2393 0
-1242 -2394 0
-1234 -2548 0
-1235 -2549 0
-1236 -2550 0
-1237 -2551 0
-1238 -2552 0
-1239 -2553 0
-1240 -2554 0
-1241 -2555 0
-1242 -2556 0
-1243 -1342 0
-1244 -1343 0
-1245 -1344 0
-1246 -1345 0
-1247 -1346 0
-1248 -1347 0
-1249 -1348 0
-1250 -1349 0
-1251 -1350 0
-1243 -1351 0
-1244 -1352 0
-1245 -1353 0
-1246 -1354 0
-1247 -1355 0
-1248 -1356 0
-1249 -1357 0
-1250 -1358 0
-1251 -1359 0
-1243 -1360 0
-1244 -1361 0
-1245 -1362 0
-1246 -1363 0
-1247 -1364 0
-1248 -1365 0
-1249 -1366 0
-1250 -1367 0
-1251 -1368 0
-1243 -1378 0
-1244 -1379 0
-1245 -1380 0
-1246 -1381 0
-1247 -1382 0
-1248 -1383 0
-1249 -1384 0
-1250 -1385 0
-1251 -1386 0
-1243 -1432 0
-1244 -1433 0
-1245 -1434 0
-1246 -1435 0
-1247 -1436 0
-1248 -1437 0
-1249 -1438 0
-1250 -1439 0
-1251 -1440 0
-1243 -1540 0
-1244 -1541 0
-1245 -1542 0
-1246 -1543 0
-1247 -1544 0
-1248 -1545 0
-1249 -1546 0
-1250 -1547 0
-1251 -1548 0
-1243 -1558 0
-1244 -1559 0
-1245 -1560 0
-1246 -1561 0
-1247 -1562 0
-1248 -1563 0
-1249 -1564 0
-1250 -1565 0
-1251 -1566 0
-1243 -1576 0
-1244 -1577 0
-1245 -1578 0
-1246 -1579 0
-1247 -1580 0
-1248 -1581 0
-1249 -1582 0
-1250 -1583 0
-1251 -1584 0
-1243 -1918 0
-1244 -1919 0
-1245 -1920 0
-1246 -1921 0
-1247 -1922 0
-1248 -1923 0
-1249 -1924 0
-1250 -1925 0
-1251 -1926 0
-1243 -1990 0
-1244 -1991 0
-1245 -1992 0
-1246 -1993 0
-1247 -1994 0
-1248 -1995 0
-1249 -1996 0
-1250 -1997 0
-1251 -1998 0
-1243 -2017 0
-1244 -2018 0
-1245 -2019 0
-1246 -2020 0
-1247 -2021 0
-1248 -2022 0
-1249 -2023 0
-1250 -2024 0
-1251 -2025 0
-1243 -2314 0
-1244 -2315 0
-1245 -2316 0
-1246 -2317 0
-1247 -2318 0
-1248 -2319 0
-1249 -2320 0
-1250 -2321 0
-1251 -2322 0
-1243 -2431 0
-1244 -2432 0
-1245 -2433 0
-1246 -2434 0
-1247 -2435 0
-1248 -2436 0
-1249 -2437 0
-1250 -2438 0
-1251 -2439 0
-1243 -2566 0
-1244 -2567 0
-1245 -2568 0
-1246 -2569 0
-1247 -2570 0
-1248 -2571 0
-1249 -2572 0
-1250 -2573 0
-1251 -2574 0
-1252 -1297 0
-1253 -1298 0
-1254 -1299 0
-1255 -1300 0
-1256 -1301 0
-1257 -1302 0
-1258 -1303 0
-1259 -1304 0
-1260 -1305 0
-1252 -1315 0
-1253 -1316 0
-1254 -1317 0
-1255 -1318 0
-1256 -1319 0
-1257 -1320 0
-1258 -1321 0
-1259 -1322 0
-1260 -1323 0
-1252 -1594 0
-1253 -1595 0
-1254 -1596 0
-1255 -1597 0
-1256 -1598 0
-1257 -1599 0
-1258 -1600 0
-1259 -1601 0
-1260 -1602 0
-1252 -1684 0
-1253 -1685 0
-1254 -1686 0
-1255 -1687 0
-1256 -1688 0
-1257 -1689 0
-1258 -1690 0
-1259 -1691 0
-1260 -1692 0
-1252 -1828 0
-1253 -1829 0
-1254 -1830 0
-1255 -1831 0
-1256 -1832 0
-1257 -1833 0
-1258 -1834 0
-1259 -1835 0
-1260 -1836 0
-1252 -1837 0
-1253 -1838 0
-1254 -1839 0
-1255 -1840 0
-1256 -1841 0
-1257 -1842 0
-1258 -1843 0
-1259 -1844 0
-1260 -1845 0
-1252 -2125 0
-1253 -2126 0
-1254 -2127 0
-1255 -2128 0
-1256 -2129 0
-1257 -2130 0
-1258 -2131 0
-1259 -2132 0
-1260 -2133 0
-1252 -2269 0
-1253 -2270 0
-1254 -2271 0
-1255 -2272 0
-1256 -2273 0
-1257 -2274 0
-1258 -2275 0
-1259 -2276 0
-1260 -2277 0
-1261 -1288 0
-1262 -1289 0
-1263 -1290 0
-1264 -1291 0
-1265 -1292 0
-1266 -1293 0
-1267 -1294 0
-1268 -1295 0
-1269 -1296 0
-1261 -1369 0
-1262 -1370 0
-1263 -1371 0
-1264 -1372 0
-1265 -1373 0
-1266 -1374 0
-1267 -1375 0
-1268 -1376 0
-1269 -1377 0
-1261 -1459 0
-1262 -1460 0
-1263 -1461 0
-1264 -1462 0
-1265 -1463 0
-1266 -1464 0
-1267 -1465 0
-1268 -1466 0
-1269 -1467 0
-1261 -1549 0
-1262 -1550 0
-1263 -1551 0
-1264 -1552 0
-1265 -1553 0
-1266 -1554 0
-1267 -1555 0
-1268 -1556 0
-1269 -1557 0
-1261 -2134 0
-1262 -2135 0
-1263 -2136 0
-1264 -2137 0
-1265 -2138 0
-1266 -2139 0
-1267 -2140 0
-1268 -2141 0
-1269 -2142 0
-1261 -2350 0
-1262 -2351 0
-1263 -2352 0
-1264 -2353 0
-1265 -2354 0
-1266 -2355 0
-1267 -2356 0
-1268 -2357 0
-1269 -2358 0
-1261 -2404 0
-1262 -2405 0
-1263 -2406 0
-1264 -2407 0
-1265 -2408 0
-1266 -2409 0
-1267 -2410 0
-1268 -2411 0
-1269 -2412 0
-1261 -2476 0
-1262 -2477 0
-1263 -2478 0
-1264 -2479 0
-1265 -2480 0
-1266 -2481 0
-1267 -2482 0
-1268 -2483 0
-1269 -2484 0
-1270 -1711 0
-1271 -1712 0
-1272 -1713 0
-1273 -1714 0
-1274 -1715 0
-1275 -1716 0
-1276 -1717 0
-1277 -1718 0
-1278 -1719 0
-1270 -2251 0
-1271 -2252 0
-1272 -2253 0
-1273 -2254 0
-1274 -2255 0
-1275 -2256 0
-1276 -2257 0
-1277 -2258 0
-1278 -2259 0
-1270 -2260 0
-1271 -2261 0
-1272 -2262 0
-1273 -2263 0
-1274 -2264 0
-1275 -2265 0
-1276 -2266 0
-1277 -2267 0
-1278 -2268 0
-1270 -2269 0
-1271 -2270 0
-1272 -2271 0
-1273 -2272 0
-1274 -2273 0
-1275 -2274 0
-1276 -2275 0
-1277 -2276 0
-1278 -2277 0
-1270 -2287 0
-1271 -2288 0
-1272 -2289 0
-1273 -2290 0
-1274 -2291 0
-1275 -2292 0
-1276 -2293 0
-1277 -2294 0
-1278 -2295 0
-1279 -1288 0
-1280 -1289 0
-1281 -1290 0
-1282 -1291 0
-1283 -1292 0
-1284 -1293 0
-1285 -1294 0
-1286 -1295 0
-1287 -1296 0
-1279 -2467 0
-1280 -2468 0
-1281 -2469 0
-1282 -2470 0
-1283 -2471 0
-1284 -2472 0
-1285 -2473 0
-1286 -2474 0
-1287 -2475 0
-1288 -1324 0
-1289 -1325 0
-1290 -1326 0
-1291 -1327 0
-1292 -1328 0
-1293 -1329 0
-1294 -1330 0
-1295 -1331 0
-1296 -1332 0
-1288 -1351 0
-1289 -1352 0
-1290 -1353 0
-1291 -1354 0
-1292 -1355 0
-1293 -1356 0
-1294 -1357 0
-1295 -1358 0
-1296 -1359 0
-1288 -1369 0
-1289 -1370 0
-1290 -1371 0
-1291 -1372 0
-1292 -1373 0
-1293 -1374 0
-1294 -1375 0
-1295 -1376 0
-1296 -1377 0
-1288 -1378 0
-1289 -1379 0
-1290 -1380 0
-1291 -1381 0
-1292 -1382 0
-1293 -1383 0
-1294 -1384 0
-1295 -1385 0
-1296 -1386 0
-1288 -1459 0
-1289 -1460 0
-1290 -1461 0
-1291 -1462 0
-1292 -1463 0
-1293 -1464 0
-1294 -1465 0
-1295 -1466 0
-1296 -1467 0
-1288 -1495 0
-1289 -1496 0
-1290 -1497 0
-1291 -1498 0
-1292 -1499 0
-1293 -1500 0
-1294 -1501 0
-1295 -1502 0
-1296 -1503 0
-1288 -1747 0
-1289 -1748 0
-1290 -1749 0
-1291 -1750 0
-1292 -1751 0
-1293 -1752 0
-1294 -1753 0
-1295 -1754 0
-1296 -1755 0
-1288 -1873 0
-1289 -1874 0
-1290 -1875 0
-1291 -1876 0
-1292 -1877 0
-1293 -1878 0
-1294 -1879 0
-1295 -1880 0
-1296 -1881 0
-1288 -1891 0
-1289 -1892 0
-1290 -1893 0
-1291 -1894 0
-1292 -1895 0
-1293 -1896 0
-1294 -1897 0
-1295 -1898 0
-1296 -1899 0
-1288 -2197 0
-1289 -2198 0
-1290 -2199 0
-1291 -2200 0
-1292 -2201 0
-1293 -2202 0
-1294 -2203 0
-1295 -2204 0
-1296 -2205 0
-1288 -2332 0
-1289 -2333 0
-1290 -2334 0
-1291 -2335 0
-1292 -2336 0
-1293 -2337 0
-1294 -2338 0
-1295 -2339 0
-1296 -2340 0
-1288 -2350 0
-1289 -2351 0
-1290 -2352 0
-1291 -2353 0
-1292 -2354 0
-1293 -2355 0
-1294 -2356 0
-1295 -2357 0
-1296 -2358 0
-1288 -2476 0
-1289 -2477 0
-1290 -2478 0
-1291 -2479 0
-1292 -2480 0
-1293 -2481 0
-1294 -2482 0
-1295 -2483 0
-1296 -2484 0
-1288 -2512 0
-1289 -2513 0
-1290 -2514 0
-1291 -2515 0
-1292 -2516 0
-1293 -2517 0
-1294 -2518 0
-1295 -2519 0
-1296 -2520 0
-1288 -2674 0
-1289 -2675 0
-1290 -2676 0
-1291 -2677 0
-1292 -2678 0
-1293 -2679 0
-1294 -2680 0
-1295 -2681 0
-1296 -2682 0
-1297 -1387 0
-1298 -1388 0
-1299 -1389 0
-1300 -1390 0
-1301 -1391 0
-1302 -1392 0
-1303 -1393 0
-1304 -1394 0
-1305 -1395 0
-1297 -1486 0
-1298 -1487 0
-1299 -1488 0
-1300 -1489 0
-1301 -1490 0
-1302 -1491 0
-1303 -1492 0
-1304 -1493 0
-1305 -1494 0
-1297 -1684 0
-1298 -1685 0
-1299 -1686 0
-1300 -1687 0
-1301 -1688 0
-1302 -1689 0
-1303 -1690 0
-1304 -1691 0
-1305 -1692 0
-1297 -1801 0
-1298 -1802 0
-1299 -1803 0
-1300 -1804 0
-1301 -1805 0
-1302 -1806 0
-1303 -1807 0
-1304 -1808 0
-1305 -1809 0
-1297 -2062 0
-1298 -2063 0
-1299 -2064 0
-1300 -2065 0
-1301 -2066 0
-1302 -2067 0
-1303 -2068 0
-1304 -2069 0
-1305 -2070 0
-1297 -2161 0
-1298 -2162 0
-1299 -2163 0
-1300 -2164 0
-1301 -2165 0
-1302 -2166 0
-1303 -2167 0
-1304 -2168 0
-1305 -2169 0
-1297 -2413 0
-1298 -2414 0
-1299 -2415 0
-1300 -2416 0
-1301 -2417 0
-1302 -2418 0
-1303 -2419 0
-1304 -2420 0
-1305 -2421 0
-1297 -2845 0
-1298 -2846 0
-1299 -2847 0
-1300 -2848 0
-1301 -2849 0
-1302 -2850 0
-1303 -2851 0
-1304 -2852 0
-1305 -2853 0
-1306 -1351 0
-1307 -1352 0
-1308 -1353 0
-1309 -1354 0
-1310 -1355 0
-1311 -1356 0
-1312 -1357 0
-1313 -1358 0
-1314 -1359 0
-1306 -1513 0
-1307 -1514 0
-1308 -1515 0
-1309 -1516 0
-1310 -1517 0
-1311 -1518 0
-1312 -1519 0
-1313 -1520 0
-1314 -1521 0
-1306 -1621 0
-1307 -1622 0
-1308 -1623 0
-1309 -1624 0
-1310 -1625 0
-1311 -1626 0
-1312 -1627 0
-1313 -1628 0
-1314 -1629 0
-1306 -1639 0
-1307 -1640 0
-1308 -1641 0
-1309 -1642 0
-1310 -1643 0
-1311 -1644 0
-1312 -1645 0
-1313 -1646 0
-1314 -1647 0
-1306 -1657 0
-1307 -1658 0
-1308 -1659 0
-1309 -1660 0
-1310 -1661 0
-1311 -1662 0
-1312 -1663 0
-1313 -1664 0
-1314 -1665 0
-1306 -1765 0
-1307 -1766 0
-1308 -1767 0
-1309 -1768 0
-1310 -1769 0
-1311 -1770 0
-1312 -1771 0
-1313 -1772 0
-1314 -1773 0
-1306 -1801 0
-1307 -1802 0
-1308 -1803 0
-1309 -1804 0
-1310 -1805 0
-1311 -1806 0
-1312 -1807 0
-1313 -1808 0
-1314 -1809 0
-1306 -1882 0
-1307 -1883 0
-1308 -1884 0
-1309 -1885 0
-1310 -1886 0
-1311 -1887 0
-1312 -1888 0
-1313 -1889 0
-1314 -1890 0
-1306 -1981 0
-1307 -1982 0
-1308 -1983 0
-1309 -1984 0
-1310 -1985 0
-1311 -1986 0
-1312 -1987 0
-1313 -1988 0
-1314 -1989 0
-1306 -2170 0
-1307 -2171 0
-1308 -2172 0
-1309 -2173 0
-1310 -2174 0
-1311 -2175 0
-1312 -2176 0
-1313 -2177 0
-1314 -2178 0
-1306 -2314 0
-1307 -2315 0
-1308 -2316 0
-1309 -2317 0
-1310 -2318 0
-1311 -2319 0
-1312 -2320 0
-1313 -2321 0
-1314 -2322 0
-1306 -2332 0
-1307 -2333 0
-1308 -2334 0
-1309 -2335 0
-1310 -2336 0
-1311 -2337 0
-1312 -2338 0
-1313 -2339 0
-1314 -2340 0
-1306 -2341 0
-1307 -2342 0
-1308 -2343 0
-1309 -2344 0
-1310 -2345 0
-1311 -2346 0
-1312 -2347 0
-1313 -2348 0
-1314 -2349 0
-1306 -2413 0
-1307 -2414 0
-1308 -2415 0
-1309 -2416 0
-1310 -2417 0
-1311 -2418 0
-1312 -2419 0
-1313 -2420 0
-1314 -2421 0
-1306 -2422 0
-1307 -2423 0
-1308 -2424 0
-1309 -2425 0
-1310 -2426 0
-1311 -2427 0
-1312 -2428 0
-1313 -2429 0
-1314 -2430 0
-1315 -1396 0
-1316 -1397 0
-1317 -1398 0
-1318 -1399 0
-1319 -1400 0
-1320 -1401 0
-1321 -1402 0
-1322 -1403 0
-1323 -1404 0
-1315 -1531 0
-1316 -1532 0
-1317 -1533 0
-1318 -1534 0
-1319 -1535 0
-1320 -1536 0
-1321 -1537 0
-1322 -1538 0
-1323 -1539 0
-1315 -1630 0
-1316 -1631 0
-1317 -1632 0
-1318 -1633 0
-1319 -1634 0
-1320 -1635 0
-1321 -1636 0
-1322 -1637 0
-1323 -1638 0
-1315 -1765 0
-1316 -1766 0
-1317 -1767 0
-1318 -1768 0
-1319 -1769 0
-1320 -1770 0
-1321 -1771 0
-1322 -1772 0
-1323 -1773 0
-1315 -2125 0
-1316 -2126 0
-1317 -2127 0
-1318 -2128 0
-1319 -2129 0
-1320 -2130 0
-1321 -2131 0
-1322 -2132 0
-1323 -2133 0
-1315 -2179 0
-1316 -2180 0
-1317 -2181 0
-1318 -2182 0
-1319 -2183 0
-1320 -2184 0
-1321 -2185 0
-1322 -2186 0
-1323 -2187 0
-1315 -2296 0
-1316 -2297 0
-1317 -2298 0
-1318 -2299 0
-1319 -2300 0
-1320 -2301 0
-1321 -2302 0
-1322 -2303 0
-1323 -2304 0
-1315 -2764 0
-1316 -2765 0
-1317 -2766 0
-1318 -2767 0
-1319 -2768 0
-1320 -2769 0
-1321 -2770 0
-1322 -2771 0
-1323 -2772 0
-1324 -1369 0
-1325 -1370 0
-1326 -1371 0
-1327 -1372 0
-1328 -1373 0
-1329 -1374 0
-1330 -1375 0
-1331 -1376 0
-1332 -1377 0
-1324 -1675 0
-1325 -1676 0
-1326 -1677 0
-1327 -1678 0
-1328 -1679 0
-1329 -1680 0
-1330 -1681 0
-1331 -1682 0
-1332 -1683 0
-1324 -1747 0
-1325 -1748 0
-1326 -1749 0
-1327 -1750 0
-1328 -1751 0
-1329 -1752 0
-1330 -1753 0
-1331 -1754 0
-1332 -1755 0
-1324 -2368 0
-1325 -2369 0
-1326 -2370 0
-1327 -2371 0
-1328 -2372 0
-1329 -2373 0
-1330 -2374 0
-1331 -2375 0
-1332 -2376 0
-1324 -2512 0
-1325 -2513 0
-1326 -2514 0
-1327 -2515 0
-1328 -2516 0
-1329 -2517 0
-1330 -2518 0
-1331 -2519 0
-1332 -2520 0
-1333 -1378 0
-1334 -1379 0
-1335 -1380 0
-1336 -1381 0
-1337 -1382 0
-1338 -1383 0
-1339 -1384 0
-1340 -1385 0
-1341 -1386 0
-1333 -1756 0
-1334 -1757 0
-1335 -1758 0
-1336 -1759 0
-1337 -1760 0
-1338 -1761 0
-1339 -1762 0
-1340 -1763 0
-1341 -1764 0
-1333 -1864 0
-1334 -1865 0
-1335 -1866 0
-1336 -1867 0
-1337 -1868 0
-1338 -1869 0
-1339 -1870 0
-1340 -1871 0
-1341 -1872 0
-1333 -1999 0
-1334 -2000 0
-1335 -2001 0
-1336 -2002 0
-1337 -2003 0
-1338 -2004 0
-1339 -2005 0
-1340 -2006 0
-1341 -2007 0
-1333 -2071 0
-1334 -2072 0
-1335 -2073 0
-1336 -2074 0
-1337 -2075 0
-1338 -2076 0
-1339 -2077 0
-1340 -2078 0
-1341 -2079 0
-1333 -2098 0
-1334 -2099 0
-1335 -2100 0
-1336 -2101 0
-1337 -2102 0
-1338 -2103 0
-1339 -2104 0
-1340 -2105 0
-1341 -2106 0
-1333 -2107 0
-1334 -2108 0
-1335 -2109 0
-1336 -2110 0
-1337 -2111 0
-1338 -2112 0
-1339 -2113 0
-1340 -2114 0
-1341 -2115 0
-1333 -2161 0
-1334 -2162 0
-1335 -2163 0
-1336 -2164 0
-1337 -2165 0
-1338 -2166 0
-1339 -2167 0
-1340 -2168 0
-1341 -2169 0
-1333 -2179 0
-1334 -2180 0
-1335 -2181 0
-1336 -2182 0
-1337 -2183 0
-1338 -2184 0
-1339 -2185 0
-1340 -2186 0
-1341 -2187 0
-1333 -2251 0
-1334 -2252 0
-1335 -2253 0
-1336 -2254 0
-1337 -2255 0
-1338 -2256 0
-1339 -2257 0
-1340 -2258 0
-1341 -2259 0
-1333 -2296 0
-1334 -2297 0
-1335 -2298 0
-1336 -2299 0
-1337 -2300 0
-1338 -2301 0
-1339 -2302 0
-1340 -2303 0
-1341 -2304 0
-1333 -2323 0
-1334 -2324 0
-1335 -2325 0
-1336 -2326 0
-1337 -2327 0
-1338 -2328 0
-1339 -2329 0
-1340 -2330 0
-1341 -2331 0
-1333 -2350 0
-1334 -2351 0
-1335 -2352 0
-1336 -2353 0
-1337 -2354 0
-1338 -2355 0
-1339 -2356 0
-1340 -2357 0
-1341 -2358 0
-1333 -2431 0
-1334 -2432 0
-1335 -2433 0
-1336 -2434 0
-1337 -2435 0
-1338 -2436 0
-1339 -2437 0
-1340 -2438 0
-1341 -2439 0
-1342 -1522 0
-1343 -1523 0
-1344 -1524 0
-1345 -1525 0
-1346 -1526 0
-1347 -1527 0
-1348 -1528 0
-1349 -1529 0
-1350 -1530 0
-1342 -1666 0
-1343 -1667 0
-1344 -1668 0
-1345 -1669 0
-1346 -1670 0
-1347 -1671 0
-1348 -1672 0
-1349 -1673 0
-1350 -1674 0
-1342 -1693 0
-1343 -1694 0
-1344 -1695 0
-1345 -1696 0
-1346 -1697 0
-1347 -1698 0
-1348 -1699 0
-1349 -1700 0
-1350 -1701 0
-1342 -1792 0
-1343 -1793 0
-1344 -1794 0
-1345 -1795 0
-1346 -1796 0
-1347 -1797 0
-1348 -1798 0
-1349 -1799 0
-1350 -1800 0
-1342 -1837 0
-1343 -1838 0
-1344 -1839 0
-1345 -1840 0
-1346 -1841 0
-1347 -1842 0
-1348 -1843 0
-1349 -1844 0
-1350 -1845 0
-1342 -2125 0
-1343 -2126 0
-1344 -2127 0
-1345 -2128 0
-1346 -2129 0
-1347 -2130 0
-1348 -2131 0
-1349 -2132 0
-1350 -2133 0
-1342 -2179 0
-1343 -2180 0
-1344 -2181 0
-1345 -2182 0
-1346 -2183 0
-1347 -2184 0
-1348 -2185 0
-1349 -2186 0
-1350 -2187 0
-1342 -2377 0
-1343 -2378 0
-1344 -2379 0
-1345 -2380 0
-1346 -2381 0
-1347 -2382 0
-1348 -2383 0
-1349 -2384 0
-1350 -2385 0
-1342 -2431 0
-1343 -2432 0
-1344 -2433 0
-1345 -2434 0
-1346 -2435 0
-1347 -2436 0
-1348 -2437 0
-1349 -2438 0
-1350 -2439 0
-1342 -2458 0
-1343 -2459 0
-1344 -2460 0
-1345 -2461 0
-1346 -2462 0
-1347 -2463 0
-1348 -2464 0
-1349 -2465 0
-1350 -2466 0
-1342 -2512 0
-1343 -2513 0
-1344 -2514 0
-1345 -2515 0
-1346 -2516 0
-1347 -2517 0
-1348 -2518 0
-1349 -2519 0
-1350 -2520 0
-1351 -1675 0
-1352 -1676 0
-1353 -1677 0
-1354 -1678 0
-1355 -1679 0
-1356 -1680 0
-1357 -1681 0
-1358 -1682 0
-1359 -1683 0
-1351 -1738 0
-1352 -1739 0
-1353 -1740 0
-1354 -1741 0
-1355 -1742 0
-1356 -1743 0
-1357 -1744 0
-1358 -1745 0
-1359 -1746 0
-1351 -1828 0
-1352 -1829 0
-1353 -1830 0
-1354 -1831 0
-1355 -1832 0
-1356 -1833 0
-1357 -1834 0
-1358 -1835 0
-1359 -1836 0
-1351 -2314 0
-1352 -2315 0
-1353 -2316 0
-1354 -2317 0
-1355 -2318 0
-1356 -2319 0
-1357 -2320 0
-1358 -2321 0
-1359 -2322 0
-1351 -2386 0
-1352 -2387 0
-1353 -2388 0
-1354 -2389 0
-1355 -2390 0
-1356 -2391 0
-1357 -2392 0
-1358 -2393 0
-1359 -2394 0
-1360 -1459 0
-1361 -1460 0
-1362 -1461 0
-1363 -1462 0
-1364 -1463 0
-1365 -1464 0
-1366 -1465 0
-1367 -1466 0
-1368 -1467 0
-1360 -1549 0
-1361 -1550 0
-1362 -1551 0
-1363 -1552 0
-1364 -1553 0
-1365 -1554 0
-1366 -1555 0
-1367 -1556 0
-1368 -1557 0
-1360 -1684 0
-1361 -1685 0
-1362 -1686 0
-1363 -1687 0
-1364 -1688 0
-1365 -1689 0
-1366 -1690 0
-1367 -1691 0
-1368 -1692 0
-1360 -1801 0
-1361 -1802 0
-1362 -1803 0
-1363 -1804 0
-1364 -1805 0
-1365 -1806 0
-1366 -1807 0
-1367 -1808 0
-1368 -1809 0
-1360 -1828 0
-1361 -1829 0
-1362 -1830 0
-1363 -1831 0
-1364 -1832 0
-1365 -1833 0
-1366 -1834 0
-1367 -1835 0
-1368 -1836 0
-1360 -2089 0
-1361 -2090 0
-1362 -2091 0
-1363 -2092 0
-1364 -2093 0
-1365 -2094 0
-1366 -2095 0
-1367 -2096 0
-1368 -2097 0
-1360 -2116 0
-1361 -2117 0
-1362 -2118 0
-1363 -2119 0
-1364 -2120 0
-1365 -2121 0
-1366 -2122 0
-1367 -2123 0
-1368 -2124 0
-1360 -2206 0
-1361 -2207 0
-1362 -2208 0
-1363 -2209 0
-1364 -2210 0
-1365 -2211 0
-1366 -2212 0
-1367 -2213 0
-1368 -2214 0
-1360 -2314 0
-1361 -2315 0
-1362 -2316 0
-1363 -2317 0
-1364 -2318 0
-1365 -2319 0
-1366 -2320 0
-1367 -2321 0
-1368 -2322 0
-1360 -2386 0
-1361 -2387 0
-1362 -2388 0
-1363 -2389 0
-1364 -2390 0
-1365 -2391 0
-1366 -2392 0
-1367 -2393 0
-1368 -2394 0
-1360 -2476 0
-1361 -2477 0
-1362 -2478 0
-1363 -2479 0
-1364 -2480 0
-1365 -2481 0
-1366 -2482 0
-1367 -2483 0
-1368 -2484 0
-1360 -2503 0
-1361 -2504 0
-1362 -2505 0
-1363 -2506 0
-1364 -2507 0
-1365 -2508 0
-1366 -2509 0
-1367 -2510 0
-1368 -2511 0
-1369 -1432 0
-1370 -1433 0
-1371 -1434 0
-1372 -1435 0
-1373 -1436 0
-1374 -1437 0
-1375 -1438 0
-1376 -1439 0
-1377 -1440 0
-1369 -1495 0
-1370 -1496 0
-1371 -1497 0
-1372 -1498 0
-1373 -1499 0
-1374 -1500 0
-1375 -1501 0
-1376 -1502 0
-1377 -1503 0
-1369 -1567 0
-1370 -1568 0
-1371 -1569 0
-1372 -1570 0
-1373 -1571 0
-1374 -1572 0
-1375 -1573 0
-1376 -1574 0
-1377 -1575 0
-1369 -2134 0
-1370 -2135 0
-1371 -2136 0
-1372 -2137 0
-1373 -2138 0
-1374 -2139 0
-1375 -2140 0
-1376 -2141 0
-1377 -2142 0
-1369 -2197 0
-1370 -2198 0
-1371 -2199 0
-1372 -2200 0
-1373 -2201 0
-1374 -2202 0
-1375 -2203 0
-1376 -2204 0
-1377 -2205 0
-1369 -2368 0
-1370 -2369 0
-1371 -2370 0
-1372 -2371 0
-1373 -2372 0
-1374 -2373 0
-1375 -2374 0
-1376 -2375 0
-1377 -2376 0
-1369 -2476 0
-1370 -2477 0
-1371 -2478 0
-1372 -2479 0
-1373 -2480 0
-1374 -2481 0
-1375 -2482 0
-1376 -2483 0
-1377 -2484 0
-1378 -1468 0
-1379 -1469 0
-1380 -1470 0
-1381 -1471 0
-1382 -1472 0
-1383 -1473 0
-1384 -1474 0
-1385 -1475 0
-1386 -1476 0
-1378 -1837 0
-1379 -1838 0
-1380 -1839 0
-1381 -1840 0
-1382 -1841 0
-1383 -1842 0
-1384 -1843 0
-1385 -1844 0
-1386 -1845 0
-1378 -2134 0
-1379 -2135 0
-1380 -2136 0
-1381 -2137 0
-1382 -2138 0
-1383 -2139 0
-1384 -2140 0
-1385 -2141 0
-1386 -2142 0
-1378 -2224 0
-1379 -2225 0
-1380 -2226 0
-1381 -2227 0
-1382 -2228 0
-1383 -2229 0
-1384 -2230 0
-1385 -2231 0
-1386 -2232 0
-1378 -2377 0
-1379 -2378 0
-1380 -2379 0
-1381 -2380 0
-1382 -2381 0
-1383 -2382 0
-1384 -2383 0
-1385 -2384 0
-1386 -2385 0
-1378 -2431 0
-1379 -2432 0
-1380 -2433 0
-1381 -2434 0
-1382 -2435 0
-1383 -2436 0
-1384 -2437 0
-1385 -2438 0
-1386 -2439 0
-1387 -1396 0
-1388 -1397 0
-1389 -1398 0
-1390 -1399 0
-1391 -1400 0
-1392 -1401 0
-1393 -1402 0
-1394 -1403 0
-1395 -1404 0
-1387 -1585 0
-1388 -1586 0
-1389 -1587 0
-1390 -1588 0
-1391 -1589 0
-1392 -1590 0
-1393 -1591 0
-1394 -1592 0
-1395 -1593 0
-1387 -2314 0
-1388 -2315 0
-1389 -2316 0
-1390 -2317 0
-1391 -2318 0
-1392 -2319 0
-1393 -2320 0
-1394 -2321 0
-1395 -2322 0
-1387 -2332 0
-1388 -2333 0
-1389 -2334 0
-1390 -2335 0
-1391 -2336 0
-1392 -2337 0
-1393 -2338 0
-1394 -2339 0
-1395 -2340 0
-1387 -2494 0
-1388 -2495 0
-1389 -2496 0
-1390 -2497 0
-1391 -2498 0
-1392 -2499 0
-1393 -2500 0
-1394 -2501 0
-1395 -2502 0
-1387 -2701 0
-1388 -2702 0
-1389 -2703 0
-1390 -2704 0
-1391 -2705 0
-1392 -2706 0
-1393 -2707 0
-1394 -2708 0
-1395 -2709 0
-1396 -1432 0
-1397 -1433 0
-1398 -1434 0
-1399 -1435 0
-1400 -1436 0
-1401 -1437 0
-1402 -1438 0
-1403 -1439 0
-1404 -1440 0
-1396 -1549 0
-1397 -1550 0
-1398 -1551 0
-1399 -1552 0
-1400 -1553 0
-1401 -1554 0
-1402 -1555 0
-1403 -1556 0
-1404 -1557 0
-1396 -2350 0
-1397 -2351 0
-1398 -2352 0
-1399 -2353 0
-1400 -2354 0
-1401 -2355 0
-1402 -2356 0
-1403 -2357 0
-1404 -2358 0
-1396 -2431 0
-1397 -2432 0
-1398 -2433 0
-1399 -2434 0
-1400 -2435 0
-1401 -2436 0
-1402 -2437 0
-1403 -2438 0
-1404 -2439 0
-1396 -2530 0
-1397 -2531 0
-1398 -2532 0
-1399 -2533 0
-1400 -2534 0
-1401 -2535 0
-1402 -2536 0
-1403 -2537 0
-1404 -2538 0
-1396 -2710 0
-1397 -2711 0
-1398 -2712 0
-1399 -2713 0
-1400 -2714 0
-1401 -2715 0
-1402 -2716 0
-1403 -2717 0
-1404 -2718 0
-1405 -2143 0
-1406 -2144 0
-1407 -2145 0
-1408 -2146 0
-1409 -2147 0
-1410 -2148 0
-1411 -2149 0
-1412 -2150 0
-1413 -2151 0
-1405 -2206 0
-1406 -2207 0
-1407 -2208 0
-1408 -2209 0
-1409 -2210 0
-1410 -2211 0
-1411 -2212 0
-1412 -2213 0
-1413 -2214 0
-1405 -2431 0
-1406 -2432 0
-1407 -2433 0
-1408 -2434 0
-1409 -2435 0
-1410 -2436 0
-1411 -2437 0
-1412 -2438 0
-1413 -2439 0
-1405 -2512 0
-1406 -2513 0
-1407 -2514 0
-1408 -2515 0
-1409 -2516 0
-1410 -2517 0
-1411 -2518 0
-1412 -2519 0
-1413 -2520 0
-1405 -2737 0
-1406 -2738 0
-1407 -2739 0
-1408 -2740 0
-1409 -2741 0
-1410 -2742 0
-1411 -2743 0
-1412 -2744 0
-1413 -2745 0
-1414 -1432 0
-1415 -1433 0
-1416 -1434 0
-1417 -1435 0
-1418 -1436 0
-1419 -1437 0
-1420 -1438 0
-1421 -1439 0
-1422 -1440 0
-1414 -1558 0
-1415 -1559 0
-1416 -1560 0
-1417 -1561 0
-1418 -1562 0
-1419 -1563 0
-1420 -1564 0
-1421 -1565 0
-1422 -1566 0
-1414 -1702 0
-1415 -1703 0
-1416 -1704 0
-1417 -1705 0
-1418 -1706 0
-1419 -1707 0
-1420 -1708 0
-1421 -1709 0
-1422 -1710 0
-1414 -1792 0
-1415 -1793 0
-1416 -1794 0
-1417 -1795 0
-1418 -1796 0
-1419 -1797 0
-1420 -1798 0
-1421 -1799 0
-1422 -1800 0
-1414 -2314 0
-1415 -2315 0
-1416 -2316 0
-1417 -2317 0
-1418 -2318 0
-1419 -2319 0
-1420 -2320 0
-1421 -2321 0
-1422 -2322 0
-1414 -2476 0
-1415 -2477 0
-1416 -2478 0
-1417 -2479 0
-1418 -2480 0
-1419 -2481 0
-1420 -2482 0
-1421 -2483 0
-1422 -2484 0
-1414 -2881 0
-1415 -2882 0
-1416 -2883 0
-1417 -2884 0
-1418 -2885 0
-1419 -2886 0
-1420 -2887 0
-1421 -2888 0
-1422 -2889 0
-1423 -1711 0
-1424 -1712 0
-1425 -1713 0
-1426 -1714 0
-1427 -1715 0
-1428 -1716 0
-1429 -1717 0
-1430 -1718 0
-1431 -1719 0
-1423 -1801 0
-1424 -1802 0
-1425 -1803 0
-1426 -1804 0
-1427 -1805 0
-1428 -1806 0
-1429 -1807 0
-1430 -1808 0
-1431 -1809 0
-1423 -1999 0
-1424 -2000 0
-1425 -2001 0
-1426 -2002 0
-1427 -2003 0
-1428 -2004 0
-1429 -2005 0
-1430 -2006 0
-1431 -2007 0
-1423 -2089 0
-1424 -2090 0
-1425 -2091 0
-1426 -2092 0
-1427 -2093 0
-1428 -2094 0
-1429 -2095 0
-1430 -2096 0
-1431 -2097 0
-1423 -2107 0
-1424 -2108 0
-1425 -2109 0
-1426 -2110 0
-1427 -2111 0
-1428 -2112 0
-1429 -2113 0
-1430 -2114 0
-1431 -2115 0
-1423 -2161 0
-1424 -2162 0
-1425 -2163 0
-1426 -2164 0
-1427 -2165 0
-1428 -2166 0
-1429 -2167 0
-1430 -2168 0
-1431 -2169 0
-1423 -2170 0
-1424 -2171 0
-1425 -2172 0
-1426 -2173 0
-1427 -2174 0
-1428 -2175 0
-1429 -2176 0
-1430 -2177 0
-1431 -2178 0
-1423 -2692 0
-1424 -2693 0
-1425 -2694 0
-1426 -2695 0
-1427 -2696 0
-1428 -2697 0
-1429 -2698 0
-1430 -2699 0
-1431 -2700 0
-1423 -2710 0
-1424 -2711 0
-1425 -2712 0
-1426 -2713 0
-1427 -2714 0
-1428 -2715 0
-1429 -2716 0
-1430 -2717 0
-1431 -2718 0
-1432 -1549 0
-1433 -1550 0
-1434 -1551 0
-1435 -1552 0
-1436 -1553 0
-1437 -1554 0
-1438 -1555 0
-1439 -1556 0
-1440 -1557 0
-1432 -1567 0
-1433 -1568 0
-1434 -1569 0
-1435 -1570 0
-1436 -1571 0
-1437 -1572 0
-1438 -1573 0
-1439 -1574 0
-1440 -1575 0
-1432 -1585 0
-1433 -1586 0
-1434 -1587 0
-1435 -1588 0
-1436 -1589 0
-1437 -1590 0
-1438 -1591 0
-1439 -1592 0
-1440 -1593 0
-1432 -2134 0
-1433 -2135 0
-1434 -2136 0
-1435 -2137 0
-1436 -2138 0
-1437 -2139 0
-1438 -2140 0
-1439 -2141 0
-1440 -2142 0
-1432 -2197 0
-1433 -2198 0
-1434 -2199 0
-1435 -2200 0
-1436 -2201 0
-1437 -2202 0
-1438 -2203 0
-1439 -2204 0
-1440 -2205 0
-1432 -2224 0
-1433 -2225 0
-1434 -2226 0
-1435 -2227 0
-1436 -2228 0
-1437 -2229 0
-1438 -2230 0
-1439 -2231 0
-1440 -2232 0
-1432 -2377 0
-1433 -2378 0
-1434 -2379 0
-1435 -2380 0
-1436 -2381 0
-1437 -2382 0
-1438 -2383 0
-1439 -2384 0
-1440 -2385 0
-1432 -2422 0
-1433 -2423 0
-1434 -2424 0
-1435 -2425 0
-1436 -2426 0
-1437 -2427 0
-1438 -2428 0
-1439 -2429 0
-1440 -2430 0
-1432 -2620 0
-1433 -2621 0
-1434 -2622 0
-1435 -2623 0
-1436 -2624 0
-1437 -2625 0
-1438 -2626 0
-1439 -2627 0
-1440 -2628 0
-1441 -1522 0
-1442 -1523 0
-1443 -1524 0
-1444 -1525 0
-1445 -1526 0
-1446 -1527 0
-1447 -1528 0
-1448 -1529 0
-1449 -1530 0
-1441 -1531 0
-1442 -1532 0
-1443 -1533 0
-1444 -1534 0
-1445 -1535 0
-1446 -1536 0
-1447 -1537 0
-1448 -1538 0
-1449 -1539 0
-1441 -1594 0
-1442 -1595 0
-1443 -1596 0
-1444 -1597 0
-1445 -1598 0
-1446 -1599 0
-1447 -1600 0
-1448 -1601 0
-1449 -1602 0
-1441 -1603 0
-1442 -1604 0
-1443 -1605 0
-1444 -1606 0
-1445 -1607 0
-1446 -1608 0
-1447 -1609 0
-1448 -1610 0
-1449 -1611 0
-1441 -1612 0
-1442 -1613 0
-1443 -1614 0
-1444 -1615 0
-1445 -1616 0
-1446 -1617 0
-1447 -1618 0
-1448 -1619 0
-1449 -1620 0
-1441 -1900 0
-1442 -1901 0
-1443 -1902 0
-1444 -1903 0
-1445 -1904 0
-1446 -1905 0
-1447 -1906 0
-1448 -1907 0
-1449 -1908 0
-1441 -2116 0
-1442 -2117 0
-1443 -2118 0
-1444 -2119 0
-1445 -2120 0
-1446 -2121 0
-1447 -2122 0
-1448 -2123 0
-1449 -2124 0
-1441 -2251 0
-1442 -2252 0
-1443 -2253 0
-1444 -2254 0
-1445 -2255 0
-1446 -2256 0
-1447 -2257 0
-1448 -2258 0
-1449 -2259 0
-1450 -1459 0
-1451 -1460 0
-1452 -1461 0
-1453 -1462 0
-1454 -1463 0
-1455 -1464 0
-1456 -1465 0
-1457 -1466 0
-1458 -1467 0
-1450 -2512 0
-1451 -2513 0
-1452 -2514 0
-1453 -2515 0
-1454 -2516 0
-1455 -2517 0
-1456 -2518 0
-1457 -2519 0
-1458 -2520 0
-1459 -1504 0
-1460 -1505 0
-1461 -1506 0
-1462 -1507 0
-1463 -1508 0
-1464 -1509 0
-1465 -1510 0
-1466 -1511 0
-1467 -1512 0
-1459 -1513 0
-1460 -1514 0
-1461 -1515 0
-1462 -1516 0
-1463 -1517 0
-1464 -1518 0
-1465 -1519 0
-1466 -1520 0
-1467 -1521 0
-1459 -1540 0
-1460 -1541 0
-1461 -1542 0
-1462 -1543 0
-1463 -1544 0
-1464 -1545 0
-1465 -1546 0
-1466 -1547 0
-1467 -1548 0
-1459 -1549 0
-1460 -1550 0
-1461 -1551 0
-1462 -1552 0
-1463 -1553 0
-1464 -1554 0
-1465 -1555 0
-1466 -1556 0
-1467 -1557 0
-1459 -1657 0
-1460 -1658 0
-1461 -1659 0
-1462 -1660 0
-1463 -1661 0
-1464 -1662 0
-1465 -1663 0
-1466 -1664 0
-1467 -1665 0
-1459 -1666 0
-1460 -1667 0
-1461 -1668 0
-1462 -1669 0
-1463 -1670 0
-1464 -1671 0
-1465 -1672 0
-1466 -1673 0
-1467 -1674 0
-1459 -2017 0
-1460 -2018 0
-1461 -2019 0
-1462 -2020 0
-1463 -2021 0
-1464 -2022 0
-1465 -2023 0
-1466 -2024 0
-1467 -2025 0
-1459 -2224 0
-1460 -2225 0
-1461 -2226 0
-1462 -2227 0
-1463 -2228 0
-1464 -2229 0
-1465 -2230 0
-1466 -2231 0
-1467 -2232 0
-1459 -2395 0
-1460 -2396 0
-1461 -2397 0
-1462 -2398 0
-1463 -2399 0
-1464 -2400 0
-1465 -2401 0
-1466 -2402 0
-1467 -2403 0
-1459 -2404 0
-1460 -2405 0
-1461 -2406 0
-1462 -2407 0
-1463 -2408 0
-1464 -2409 0
-1465 -2410 0
-1466 -2411 0
-1467 -2412 0
-1459 -2467 0
-1460 -2468 0
-1461 -2469 0
-1462 -2470 0
-1463 -2471 0
-1464 -2472 0
-1465 -2473 0
-1466 -2474 0
-1467 -2475 0
-1459 -2476 0
-1460 -2477 0
-1461 -2478 0
-1462 -2479 0
-1463 -2480 0
-1464 -2481 0
-1465 -2482 0
-1466 -2483 0
-1467 -2484 0
-1459 -2674 0
-1460 -2675 0
-1461 -2676 0
-1462 -2677 0
-1463 -2678 0
-1464 -2679 0
-1465 -2680 0
-1466 -2681 0
-1467 -2682 0
-1468 -1504 0
-1469 -1505 0
-1470 -1506 0
-1471 -1507 0
-1472 -1508 0
-1473 -1509 0
-1474 -1510 0
-1475 -1511 0
-1476 -1512 0
-1468 -1648 0
-1469 -1649 0
-1470 -1650 0
-1471 -1651 0
-1472 -1652 0
-1473 -1653 0
-1474 -1654 0
-1475 -1655 0
-1476 -1656 0
-1468 -1792 0
-1469 -1793 0
-1470 -1794 0
-1471 -1795 0
-1472 -1796 0
-1473 -1797 0
-1474 -1798 0
-1475 -1799 0
-1476 -1800 0
-1468 -1846 0
-1469 -1847 0
-1470 -1848 0
-1471 -1849 0
-1472 -1850 0
-1473 -1851 0
-1474 -1852 0
-1475 -1853 0
-1476 -1854 0
-1468 -1864 0
-1469 -1865 0
-1470 -1866 0
-1471 -1867 0
-1472 -1868 0
-1473 -1869 0
-1474 -1870 0
-1475 -1871 0
-1476 -1872 0
-1468 -1873 0
-1469 -1874 0
-1470 -1875 0
-1471 -1876 0
-1472 -1877 0
-1473 -1878 0
-1474 -1879 0
-1475 -1880 0
-1476 -1881 0
-1468 -1963 0
-1469 -1964 0
-1470 -1965 0
-1471 -1966 0
-1472 -1967 0
-1473 -1968 0
-1474 -1969 0
-1475 -1970 0
-1476 -1971 0
-1468 -1999 0
-1469 -2000 0
-1470 -2001 0
-1471 -2002 0
-1472 -2003 0
-1473 -2004 0
-1474 -2005 0
-1475 -2006 0
-1476 -2007 0
-1468 -2161 0
-1469 -2162 0
-1470 -2163 0
-1471 -2164 0
-1472 -2165 0
-1473 -2166 0
-1474 -2167 0
-1475 -2168 0
-1476 -2169 0
-1468 -2323 0
-1469 -2324 0
-1470 -2325 0
-1471 -2326 0
-1472 -2327 0
-1473 -2328 0
-1474 -2329 0
-1475 -2330 0
-1476 -2331 0
-1468 -2341 0
-1469 -2342 0
-1470 -2343 0
-1471 -2344 0
-1472 -2345 0
-1473 -2346 0
-1474 -2347 0
-1475 -2348 0
-1476 -2349 0
-1468 -2359 0
-1469 -2360 0
-1470 -2361 0
-1471 -2362 0
-1472 -2363 0
-1473 -2364 0
-1474 -2365 0
-1475 -2366 0
-1476 -2367 0
-1468 -2377 0
-1469 -2378 0
-1470 -2379 0
-1471 -2380 0
-1472 -2381 0
-1473 -2382 0
-1474 -2383 0
-1475 -2384 0
-1476 -2385 0
-1468 -2395 0
-1469 -2396 0
-1470 -2397 0
-1471 -2398 0
-1472 -2399 0
-1473 -2400 0
-1474 -2401 0
-1475 -2402 0
-1476 -2403 0
-1477 -1513 0
-1478 -1514 0
-1479 -1515 0
-1480 -1516 0
-1481 -1517 0
-1482 -1518 0
-1483 -1519 0
-1484 -1520 0
-1485 -1521 0
-1477 -1639 0
-1478 -1640 0
-1479 -1641 0
-1480 -1642 0
-1481 -1643 0
-1482 -1644 0
-1483 -1645 0
-1484 -1646 0
-1485 -1647 0
-1477 -1801 0
-1478 -1802 0
-1479 -1803 0
-1480 -1804 0
-1481 -1805 0
-1482 -1806 0
-1483 -1807 0
-1484 -1808 0
-1485 -1809 0
-1477 -1954 0
-1478 -1955 0
-1479 -1956 0
-1480 -1957 0
-1481 -1958 0
-1482 -1959 0
-1483 -1960 0
-1484 -1961 0
-1485 -1962 0
-1477 -2062 0
-1478 -2063 0
-1479 -2064 0
-1480 -2065 0
-1481 -2066 0
-1482 -2067 0
-1483 -2068 0
-1484 -2069 0
-1485 -2070 0
-1477 -2080 0
-1478 -2081 0
-1479 -2082 0
-1480 -2083 0
-1481 -2084 0
-1482 -2085 0
-1483 -2086 0
-1484 -2087 0
-1485 -2088 0
-1477 -2089 0
-1478 -2090 0
-1479 -2091 0
-1480 -2092 0
-1481 -2093 0
-1482 -2094 0
-1483 -2095 0
-1484 -2096 0
-1485 -2097 0
-1477 -2170 0
-1478 -2171 0
-1479 -2172 0
-1480 -2173 0
-1481 -2174 0
-1482 -2175 0
-1483 -2176 0
-1484 -2177 0
-1485 -2178 0
-1477 -2206 0
-1478 -2207 0
-1479 -2208 0
-1480 -2209 0
-1481 -2210 0
-1482 -2211 0
-1483 -2212 0
-1484 -2213 0
-1485 -2214 0
-1477 -2269 0
-1478 -2270 0
-1479 -2271 0
-1480 -2272 0
-1481 -2273 0
-1482 -2274 0
-1483 -2275 0
-1484 -2276 0
-1485 -2277 0
-1477 -2296 0
-1478 -2297 0
-1479 -2298 0
-1480 -2299 0
-1481 -2300 0
-1482 -2301 0
-1483 -2302 0
-1484 -2303 0
-1485 -2304 0
-1477 -2314 0
-1478 -2315 0
-1479 -2316 0
-1480 -2317 0
-1481 -2318 0
-1482 -2319 0
-1483 -2320 0
-1484 -2321 0
-1485 -2322 0
-1477 -2386 0
-1478 -2387 0
-1479 -2388 0
-1480 -2389 0
-1481 -2390 0
-1482 -2391 0
-1483 -2392 0
-1484 -2393 0
-1485 -2394 0
-1477 -2404 0
-1478 -2405 0
-1479 -2406 0
-1480 -2407 0
-1481 -2408 0
-1482 -2409 0
-1483 -2410 0
-1484 -2411 0
-1485 -2412 0
-1486 -1612 0
-1487 -1613 0
-1488 -1614 0
-1489 -1615 0
-1490 -1616 0
-1491 -1617 0
-1492 -1618 0
-1493 -1619 0
-1494 -1620 0
-1486 -1891 0
-1487 -1892 0
-1488 -1893 0
-1489 -1894 0
-1490 -1895 0
-1491 -1896 0
-1492 -1897 0
-1493 -1898 0
-1494 -1899 0
-1486 -1909 0
-1487 -1910 0
-1488 -1911 0
-1489 -1912 0
-1490 -1913 0
-1491 -1914 0
-1492 -1915 0
-1493 -1916 0
-1494 -1917 0
-1486 -1981 0
-1487 -1982 0
-1488 -1983 0
-1489 -1984 0
-1490 -1985 0
-1491 -1986 0
-1492 -1987 0
-1493 -1988 0
-1494 -1989 0
-1486 -2116 0
-1487 -2117 0
-1488 -2118 0
-1489 -2119 0
-1490 -2120 0
-1491 -2121 0
-1492 -2122 0
-1493 -2123 0
-1494 -2124 0
-1486 -2206 0
-1487 -2207 0
-1488 -2208 0
-1489 -2209 0
-1490 -2210 0
-1491 -2211 0
-1492 -2212 0
-1493 -2213 0
-1494 -2214 0
-1486 -2386 0
-1487 -2387 0
-1488 -2388 0
-1489 -2389 0
-1490 -2390 0
-1491 -2391 0
-1492 -2392 0
-1493 -2393 0
-1494 -2394 0
-1486 -2422 0
-1487 -2423 0
-1488 -2424 0
-1489 -2425 0
-1490 -2426 0
-1491 -2427 0
-1492 -2428 0
-1493 -2429 0
-1494 -2430 0
-1486 -2458 0
-1487 -2459 0
-1488 -2460 0
-1489 -2461 0
-1490 -2462 0
-1491 -2463 0
-1492 -2464 0
-1493 -2465 0
-1494 -2466 0
-1486 -2467 0
-1487 -2468 0
-1488 -2469 0
-1489 -2470 0
-1490 -2471 0
-1491 -2472 0
-1492 -2473 0
-1493 -2474 0
-1494 -2475 0
-1495 -1603 0
-1496 -1604 0
-1497 -1605 0
-1498 -1606 0
-1499 -1607 0
-1500 -1608 0
-1501 -1609 0
-1502 -1610 0
-1503 -1611 0
-1495 -1900 0
-1496 -1901 0
-1497 -1902 0
-1498 -1903 0
-1499 -1904 0
-1500 -1905 0
-1501 -1906 0
-1502 -1907 0
-1503 -1908 0
-1495 -1999 0
-1496 -2000 0
-1497 -2001 0
-1498 -2002 0
-1499 -2003 0
-1500 -2004 0
-1501 -2005 0
-1502 -2006 0
-1503 -2007 0
-1495 -2107 0
-1496 -2108 0
-1497 -2109 0
-1498 -2110 0
-1499 -2111 0
-1500 -2112 0
-1501 -2113 0
-1502 -2114 0
-1503 -2115 0
-1495 -2125 0
-1496 -2126 0
-1497 -2127 0
-1498 -2128 0
-1499 -2129 0
-1500 -2130 0
-1501 -2131 0
-1502 -2132 0
-1503 -2133 0
-1495 -2179 0
-1496 -2180 0
-1497 -2181 0
-1498 -2182 0
-1499 -2183 0
-1500 -2184 0
-1501 -2185 0
-1502 -2186 0
-1503 -2187 0
-1495 -2323 0
-1496 -2324 0
-1497 -2325 0
-1498 -2326 0
-1499 -2327 0
-1500 -2328 0
-1501 -2329 0
-1502 -2330 0
-1503 -2331 0
-1495 -2431 0
-1496 -2432 0
-1497 -2433 0
-1498 -2434 0
-1499 -2435 0
-1500 -2436 0
-1501 -2437 0
-1502 -2438 0
-1503 -2439 0
-1495 -2449 0
-1496 -2450 0
-1497 -2451 0
-1498 -2452 0
-1499 -2453 0
-1500 -2454 0
-1501 -2455 0
-1502 -2456 0
-1503 -2457 0
-1495 -2476 0
-1496 -2477 0
-1497 -2478 0
-1498 -2479 0
-1499 -2480 0
-1500 -2481 0
-1501 -2482 0
-1502 -2483 0
-1503 -2484 0
-1504 -1603 0
-1505 -1604 0
-1506 -1605 0
-1507 -1606 0
-1508 -1607 0
-1509 -1608 0
-1510 -1609 0
-1511 -1610 0
-1512 -1611 0
-1504 -1918 0
-1505 -1919 0
-1506 -1920 0
-1507 -1921 0
-1508 -1922 0
-1509 -1923 0
-1510 -1924 0
-1511 -1925 0
-1512 -1926 0
-1504 -1990 0
-1505 -1991 0
-1506 -1992 0
-1507 -1993 0
-1508 -1994 0
-1509 -1995 0
-1510 -1996 0
-1511 -1997 0
-1512 -1998 0
-1504 -2323 0
-1505 -2324 0
-1506 -2325 0
-1507 -2326 0
-1508 -2327 0
-1509 -2328 0
-1510 -2329 0
-1511 -2330 0
-1512 -2331 0
-1504 -2431 0
-1505 -2432 0
-1506 -2433 0
-1507 -2434 0
-1508 -2435 0
-1509 -2436 0
-1510 -2437 0
-1511 -2438 0
-1512 -2439 0
-1513 -1612 0
-1514 -1613 0
-1515 -1614 0
-1516 -1615 0
-1517 -1616 0
-1518 -1617 0
-1519 -1618 0
-1520 -1619 0
-1521 -1620 0
-1513 -2134 0
-1514 -2135 0
-1515 -2136 0
-1516 -2137 0
-1517 -2138 0
-1518 -2139 0
-1519 -2140 0
-1520 -2141 0
-1521 -2142 0
-1513 -2197 0
-1514 -2198 0
-1515 -2199 0
-1516 -2200 0
-1517 -2201 0
-1518 -2202 0
-1519 -2203 0
-1520 -2204 0
-1521 -2205 0
-1513 -2386 0
-1514 -2387 0
-1515 -2388 0
-1516 -2389 0
-1517 -2390 0
-1518 -2391 0
-1519 -2392 0
-1520 -2393 0
-1521 -2394 0
-1513 -2422 0
-1514 -2423 0
-1515 -2424 0
-1516 -2425 0
-1517 -2426 0
-1518 -2427 0
-1519 -2428 0
-1520 -2429 0
-1521 -2430 0
-1522 -1558 0
-1523 -1559 0
-1524 -1560 0
-1525 -1561 0
-1526 -1562 0
-1527 -1563 0
-1528 -1564 0
-1529 -1565 0
-1530 -1566 0
-1522 -1900 0
-1523 -1901 0
-1524 -1902 0
-1525 -1903 0
-1526 -1904 0
-1527 -1905 0
-1528 -1906 0
-1529 -1907 0
-1530 -1908 0
-1522 -1999 0
-1523 -2000 0
-1524 -2001 0
-1525 -2002 0
-1526 -2003 0
-1527 -2004 0
-1528 -2005 0
-1529 -2006 0
-1530 -2007 0
-1522 -2071 0
-1523 -2072 0
-1524 -2073 0
-1525 -2074 0
-1526 -2075 0
-1527 -2076 0
-1528 -2077 0
-1529 -2078 0
-1530 -2079 0
-1522 -2170 0
-1523 -2171 0
-1524 -2172 0
-1525 -2173 0
-1526 -2174 0
-1527 -2175 0
-1528 -2176 0
-1529 -2177 0
-1530 -2178 0
-1522 -2359 0
-1523 -2360 0
-1524 -2361 0
-1525 -2362 0
-1526 -2363 0
-1527 -2364 0
-1528 -2365 0
-1529 -2366 0
-1530 -2367 0
-1522 -2881 0
-1523 -2882 0
-1524 -2883 0
-1525 -2884 0
-1526 -2885 0
-1527 -2886 0
-1528 -2887 0
-1529 -2888 0
-1530 -2889 0
-1531 -1567 0
-1532 -1568 0
-1533 -1569 0
-1534 -1570 0
-1535 -1571 0
-1536 -1572 0
-1537 -1573 0
-1538 -1574 0
-1539 -1575 0
-1531 -1855 0
-1532 -1856 0
-1533 -1857 0
-1534 -1858 0
-1535 -1859 0
-1536 -1860 0
-1537 -1861 0
-1538 -1862 0
-1539 -1863 0
-1531 -1963 0
-1532 -1964 0
-1533 -1965 0
-1534 -1966 0
-1535 -1967 0
-1536 -1968 0
-1537 -1969 0
-1538 -1970 0
-1539 -1971 0
-1531 -2116 0
-1532 -2117 0
-1533 -2118 0
-1534 -2119 0
-1535 -2120 0
-1536 -2121 0
-1537 -2122 0
-1538 -2123 0
-1539 -2124 0
-1531 -2206 0
-1532 -2207 0
-1533 -2208 0
-1534 -2209 0
-1535 -2210 0
-1536 -2211 0
-1537 -2212 0
-1538 -2213 0
-1539 -2214 0
-1531 -2296 0
-1532 -2297 0
-1533 -2298 0
-1534 -2299 0
-1535 -2300 0
-1536 -2301 0
-1537 -2302 0
-1538 -2303 0
-1539 -2304 0
-1531 -2890 0
-1532 -2891 0
-1533 -2892 0
-1534 -2893 0
-1535 -2894 0
-1536 -2895 0
-1537 -2896 0
-1538 -2897 0
-1539 -2898 0
-1540 -1549 0
-1541 -1550 0
-1542 -1551 0
-1543 -1552 0
-1544 -1553 0
-1545 -1554 0
-1546 -1555 0
-1547 -1556 0
-1548 -1557 0
-1540 -1918 0
-1541 -1919 0
-1542 -1920 0
-1543 -1921 0
-1544 -1922 0
-1545 -1923 0
-1546 -1924 0
-1547 -1925 0
-1548 -1926 0
-1540 -2017 0
-1541 -2018 0
-1542 -2019 0
-1543 -2020 0
-1544 -2021 0
-1545 -2022 0
-1546 -2023 0
-1547 -2024 0
-1548 -2025 0
-1540 -2440 0
-1541 -2441 0
-1542 -2442 0
-1543 -2443 0
-1544 -2444 0
-1545 -2445 0
-1546 -2446 0
-1547 -2447 0
-1548 -2448 0
-1540 -2467 0
-1541 -2468 0
-1542 -2469 0
-1543 -2470 0
-1544 -2471 0
-1545 -2472 0
-1546 -2473 0
-1547 -2474 0
-1548 -2475 0
-1549 -2134 0
-1550 -2135 0
-1551 -2136 0
-1552 -2137 0
-1553 -2138 0
-1554 -2139 0
-1555 -2140 0
-1556 -2141 0
-1557 -2142 0
-1549 -2224 0
-1550 -2225 0
-1551 -2226 0
-1552 -2227 0
-1553 -2228 0
-1554 -2229 0
-1555 -2230 0
-1556 -2231 0
-1557 -2232 0
-1549 -2440 0
-1550 -2441 0
-1551 -2442 0
-1552 -2443 0
-1553 -2444 0
-1554 -2445 0
-1555 -2446 0
-1556 -2447 0
-1557 -2448 0
-1549 -2476 0
-1550 -2477 0
-1551 -2478 0
-1552 -2479 0
-1553 -2480 0
-1554 -2481 0
-1555 -2482 0
-1556 -2483 0
-1557 -2484 0
-1558 -1567 0
-1559 -1568 0
-1560 -1569 0
-1561 -1570 0
-1562 -1571 0
-1563 -1572 0
-1564 -1573 0
-1565 -1574 0
-1566 -1575 0
-1558 -2323 0
-1559 -2324 0
-1560 -2325 0
-1561 -2326 0
-1562 -2327 0
-1563 -2328 0
-1564 -2329 0
-1565 -2330 0
-1566 -2331 0
-1558 -2395 0
-1559 -2396 0
-1560 -2397 0
-1561 -2398 0
-1562 -2399 0
-1563 -2400 0
-1564 -2401 0
-1565 -2402 0
-1566 -2403 0
-1558 -2521 0
-1559 -2522 0
-1560 -2523 0
-1561 -2524 0
-1562 -2525 0
-1563 -2526 0
-1564 -2527 0
-1565 -2528 0
-1566 -2529 0
-1558 -2683 0
-1559 -2684 0
-1560 -2685 0
-1561 -2686 0
-1562 -2687 0
-1563 -2688 0
-1564 -2689 0
-1565 -2690 0
-1566 -2691 0
-1567 -2386 0
-1568 -2387 0
-1569 -2388 0
-1570 -2389 0
-1571 -2390 0
-1572 -2391 0
-1573 -2392 0
-1574 -2393 0
-1575 -2394 0
-1567 -2404 0
-1568 -2405 0
-1569 -2406 0
-1570 -2407 0
-1571 -2408 0
-1572 -2409 0
-1573 -2410 0
-1574 -2411 0
-1575 -2412 0
-1567 -2530 0
-1568 -2531 0
-1569 -2532 0
-1570 -2533 0
-1571 -2534 0
-1572 -2535 0
-1573 -2536 0
-1574 -2537 0
-1575 -2538 0
-1567 -2692 0
-1568 -2693 0
-1569 -2694 0
-1570 -2695 0
-1571 -2696 0
-1572 -2697 0
-1573 -2698 0
-1574 -2699 0
-1575 -2700 0
-1576 -2143 0
-1577 -2144 0
-1578 -2145 0
-1579 -2146 0
-1580 -2147 0
-1581 -2148 0
-1582 -2149 0
-1583 -2150 0
-1584 -2151 0
-1576 -2179 0
-1577 -2180 0
-1578 -2181 0
-1579 -2182 0
-1580 -2183 0
-1581 -2184 0
-1582 -2185 0
-1583 -2186 0
-1584 -2187 0
-1576 -2386 0
-1577 -2387 0
-1578 -2388 0
-1579 -2389 0
-1580 -2390 0
-1581 -2391 0
-1582 -2392 0
-1583 -2393 0
-1584 -2394 0
-1576 -2467 0
-1577 -2468 0
-1578 -2469 0
-1579 -2470 0
-1580 -2471 0
-1581 -2472 0
-1582 -2473 0
-1583 -2474 0
-1584 -2475 0
-1576 -2791 0
-1577 -2792 0
-1578 -2793 0
-1579 -2794 0
-1580 -2795 0
-1581 -2796 0
-1582 -2797 0
-1583 -2798 0
-1584 -2799 0
-1585 -1927 0
-1586 -1928 0
-1587 -1929 0
-1588 -1930 0
-1589 -1931 0
-1590 -1932 0
-1591 -1933 0
-1592 -1934 0
-1593 -1935 0
-1585 -1981 0
-1586 -1982 0
-1587 -1983 0
-1588 -1984 0
-1589 -1985 0
-1590 -1986 0
-1591 -1987 0
-1592 -1988 0
-1593 -1989 0
-1585 -2323 0
-1586 -2324 0
-1587 -2325 0
-1588 -2326 0
-1589 -2327 0
-1590 -2328 0
-1591 -2329 0
-1592 -2330 0
-1593 -2331 0
-1585 -2476 0
-1586 -2477 0
-1587 -2478 0
-1588 -2479 0
-1589 -2480 0
-1590 -2481 0
-1591 -2482 0
-1592 -2483 0
-1593 -2484 0
-1585 -2845 0
-1586 -2846 0
-1587 -2847 0
-1588 -2848 0
-1589 -2849 0
-1590 -2850 0
-1591 -2851 0
-1592 -2852 0
-1593 -2853 0
-1594 -1621 0
-1595 -1622 0
-1596 -1623 0
-1597 -1624 0
-1598 -1625 0
-1599 -1626 0
-1600 -1627 0
-1601 -1628 0
-1602 -1629 0
-1594 -1630 0
-1595 -1631 0
-1596 -1632 0
-1597 -1633 0
-1598 -1634 0
-1599 -1635 0
-1600 -1636 0
-1601 -1637 0
-1602 -1638 0
-1594 -1846 0
-1595 -1847 0
-1596 -1848 0
-1597 -1849 0
-1598 -1850 0
-1599 -1851 0
-1600 -1852 0
-1601 -1853 0
-1602 -1854 0
-1594 -1855 0
-1595 -1856 0
-1596 -1857 0
-1597 -1858 0
-1598 -1859 0
-1599 -1860 0
-1600 -1861 0
-1601 -1862 0
-1602 -1863 0
-1594 -2062 0
-1595 -2063 0
-1596 -2064 0
-1597 -2065 0
-1598 -2066 0
-1599 -2067 0
-1600 -2068 0
-1601 -2069 0
-1602 -2070 0
-1594 -2071 0
-1595 -2072 0
-1596 -2073 0
-1597 -2074 0
-1598 -2075 0
-1599 -2076 0
-1600 -2077 0
-1601 -2078 0
-1602 -2079 0
-1594 -2251 0
-1595 -2252 0
-1596 -2253 0
-1597 -2254 0
-1598 -2255 0
-1599 -2256 0
-1600 -2257 0
-1601 -2258 0
-1602 -2259 0
-1594 -2269 0
-1595 -2270 0
-1596 -2271 0
-1597 -2272 0
-1598 -2273 0
-1599 -2274 0
-1600 -2275 0
-1601 -2276 0
-1602 -2277 0
-1594 -2341 0
-1595 -2342 0
-1596 -2343 0
-1597 -2344 0
-1598 -2345 0
-1599 -2346 0
-1600 -2347 0
-1601 -2348 0
-1602 -2349 0
-1594 -2539 0
-1595 -2540 0
-1596 -2541 0
-1597 -2542 0
-1598 -2543 0
-1599 -2544 0
-1600 -2545 0
-1601 -2546 0
-1602 -2547 0
-1594 -2557 0
-1595 -2558 0
-1596 -2559 0
-1597 -2560 0
-1598 -2561 0
-1599 -2562 0
-1600 -2563 0
-1601 -2564 0
-1602 -2565 0
-1594 -2611 0
-1595 -2612 0
-1596 -2613 0
-1597 -2614 0
-1598 -2615 0
-1599 -2616 0
-1600 -2617 0
-1601 -2618 0
-1602 -2619 0
-1594 -2674 0
-1595 -2675 0
-1596 -2676 0
-1597 -2677 0
-1598 -2678 0
-1599 -2679 0
-1600 -2680 0
-1601 -2681 0
-1602 -2682 0
-1603 -1630 0
-1604 -1631 0
-1605 -1632 0
-1606 -1633 0
-1607 -1634 0
-1608 -1635 0
-1609 -1636 0
-1610 -1637 0
-1611 -1638 0
-1603 -1666 0
-1604 -1667 0
-1605 -1668 0
-1606 -1669 0
-1607 -1670 0
-1608 -1671 0
-1609 -1672 0
-1610 -1673 0
-1611 -1674 0
-1603 -1756 0
-1604 -1757 0
-1605 -1758 0
-1606 -1759 0
-1607 -1760 0
-1608 -1761 0
-1609 -1762 0
-1610 -1763 0
-1611 -1764 0
-1603 -1873 0
-1604 -1874 0
-1605 -1875 0
-1606 -1876 0
-1607 -1877 0
-1608 -1878 0
-1609 -1879 0
-1610 -1880 0
-1611 -1881 0
-1603 -1972 0
-1604 -1973 0
-1605 -1974 0
-1606 -1975 0
-1607 -1976 0
-1608 -1977 0
-1609 -1978 0
-1610 -1979 0
-1611 -1980 0
-1603 -1999 0
-1604 -2000 0
-1605 -2001 0
-1606 -2002 0
-1607 -2003 0
-1608 -2004 0
-1609 -2005 0
-1610 -2006 0
-1611 -2007 0
-1603 -2143 0
-1604 -2144 0
-1605 -2145 0
-1606 -2146 0
-1607 -2147 0
-1608 -2148 0
-1609 -2149 0
-1610 -2150 0
-1611 -2151 0
-1603 -2161 0
-1604 -2162 0
-1605 -2163 0
-1606 -2164 0
-1607 -2165 0
-1608 -2166 0
-1609 -2167 0
-1610 -2168 0
-1611 -2169 0
-1603 -2179 0
-1604 -2180 0
-1605 -2181 0
-1606 -2182 0
-1607 -2183 0
-1608 -2184 0
-1609 -2185 0
-1610 -2186 0
-1611 -2187 0
-1603 -2395 0
-1604 -2396 0
-1605 -2397 0
-1606 -2398 0
-1607 -2399 0
-1608 -2400 0
-1609 -2401 0
-1610 -2402 0
-1611 -2403 0
-1603 -2584 0
-1604 -2585 0
-1605 -2586 0
-1606 -2587 0
-1607 -2588 0
-1608 -2589 0
-1609 -2590 0
-1610 -2591 0
-1611 -2592 0
-1612 -1621 0
-1613 -1622 0
-1614 -1623 0
-1615 -1624 0
-1616 -1625 0
-1617 -1626 0
-1618 -1627 0
-1619 -1628 0
-1620 -1629 0
-1612 -1657 0
-1613 -1658 0
-1614 -1659 0
-1615 -1660 0
-1616 -1661 0
-1617 -1662 0
-1618 -1663 0
-1619 -1664 0
-1620 -1665 0
-1612 -1765 0
-1613 -1766 0
-1614 -1767 0
-1615 -1768 0
-1616 -1769 0
-1617 -1770 0
-1618 -1771 0
-1619 -1772 0
-1620 -1773 0
-1612 -1927 0
-1613 -1928 0
-1614 -1929 0
-1615 -1930 0
-1616 -1931 0
-1617 -1932 0
-1618 -1933 0
-1619 -1934 0
-1620 -1935 0
-1612 -1954 0
-1613 -1955 0
-1614 -1956 0
-1615 -1957 0
-1616 -1958 0
-1617 -1959 0
-1618 -1960 0
-1619 -1961 0
-1620 -1962 0
-1612 -1981 0
-1613 -1982 0
-1614 -1983 0
-1615 -1984 0
-1616 -1985 0
-1617 -1986 0
-1618 -1987 0
-1619 -1988 0
-1620 -1989 0
-1612 -2089 0
-1613 -2090 0
-1614 -2091 0
-1615 -2092 0
-1616 -2093 0
-1617 -2094 0
-1618 -2095 0
-1619 -2096 0
-1620 -2097 0
-1612 -2188 0
-1613 -2189 0
-1614 -2190 0
-1615 -2191 0
-1616 -2192 0
-1617 -2193 0
-1618 -2194 0
-1619 -2195 0
-1620 -2196 0
-1612 -2206 0
-1613 -2207 0
-1614 -2208 0
-1615 -2209 0
-1616 -2210 0
-1617 -2211 0
-1618 -2212 0
-1619 -2213 0
-1620 -2214 0
-1612 -2404 0
-1613 -2405 0
-1614 -2406 0
-1615 -2407 0
-1616 -2408 0
-1617 -2409 0
-1618 -2410 0
-1619 -2411 0
-1620 -2412 0
-1612 -2629 0
-1613 -2630 0
-1614 -2631 0
-1615 -2632 0
-1616 -2633 0
-1617 -2634 0
-1618 -2635 0
-1619 -2636 0
-1620 -2637 0
-1621 -1729 0
-1622 -1730 0
-1623 -1731 0
-1624 -1732 0
-1625 -1733 0
-1626 -1734 0
-1627 -1735 0
-1628 -1736 0
-1629 -1737 0
-1621 -2071 0
-1622 -2072 0
-1623 -2073 0
-1624 -2074 0
-1625 -2075 0
-1626 -2076 0
-1627 -2077 0
-1628 -2078 0
-1629 -2079 0
-1621 -2143 0
-1622 -2144 0
-1623 -2145 0
-1624 -2146 0
-1625 -2147 0
-1626 -2148 0
-1627 -2149 0
-1628 -2150 0
-1629 -2151 0
-1621 -2638 0
-1622 -2639 0
-1623 -2640 0
-1624 -2641 0
-1625 -2642 0
-1626 -2643 0
-1627 -2644 0
-1628 -2645 0
-1629 -2646 0
-1630 -1729 0
-1631 -1730 0
-1632 -1731 0
-1633 -1732 0
-1634 -1733 0
-1635 -1734 0
-1636 -1735 0
-1637 -1736 0
-1638 -1737 0
-1630 -1855 0
-1631 -1856 0
-1632 -1857 0
-1633 -1858 0
-1634 -1859 0
-1635 -1860 0
-1636 -1861 0
-1637 -1862 0
-1638 -1863 0
-1630 -1927 0
-1631 -1928 0
-1632 -1929 0
-1633 -1930 0
-1634 -1931 0
-1635 -1932 0
-1636 -1933 0
-1637 -1934 0
-1638 -1935 0
-1630 -2593 0
-1631 -2594 0
-1632 -2595 0
-1633 -2596 0
-1634 -2597 0
-1635 -2598 0
-1636 -2599 0
-1637 -2600 0
-1638 -2601 0
-1639 -1801 0
-1640 -1802 0
-1641 -1803 0
-1642 -1804 0
-1643 -1805 0
-1644 -1806 0
-1645 -1807 0
-1646 -1808 0
-1647 -1809 0
-1639 -1909 0
-1640 -1910 0
-1641 -1911 0
-1642 -1912 0
-1643 -1913 0
-1644 -1914 0
-1645 -1915 0
-1646 -1916 0
-1647 -1917 0
-1639 -1945 0
-1640 -1946 0
-1641 -1947 0
-1642 -1948 0
-1643 -1949 0
-1644 -1950 0
-1645 -1951 0
-1646 -1952 0
-1647 -1953 0
-1639 -1990 0
-1640 -1991 0
-1641 -1992 0
-1642 -1993 0
-1643 -1994 0
-1644 -1995 0
-1645 -1996 0
-1646 -1997 0
-1647 -1998 0
-1639 -2116 0
-1640 -2117 0
-1641 -2118 0
-1642 -2119 0
-1643 -2120 0
-1644 -2121 0
-1645 -2122 0
-1646 -2123 0
-1647 -2124 0
-1639 -2305 0
-1640 -2306 0
-1641 -2307 0
-1642 -2308 0
-1643 -2309 0
-1644 -2310 0
-1645 -2311 0
-1646 -2312 0
-1647 -2313 0
-1639 -2386 0
-1640 -2387 0
-1641 -2388 0
-1642 -2389 0
-1643 -2390 0
-1644 -2391 0
-1645 -2392 0
-1646 -2393 0
-1647 -2394 0
-1639 -2422 0
-1640 -2423 0
-1641 -2424 0
-1642 -2425 0
-1643 -2426 0
-1644 -2427 0
-1645 -2428 0
-1646 -2429 0
-1647 -2430 0
-1639 -2467 0
-1640 -2468 0
-1641 -2469 0
-1642 -2470 0
-1643 -2471 0
-1644 -2472 0
-1645 -2473 0
-1646 -2474 0
-1647 -2475 0
-1639 -2755 0
-1640 -2756 0
-1641 -2757 0
-1642 -2758 0
-1643 -2759 0
-1644 -2760 0
-1645 -2761 0
-1646 -2762 0
-1647 -2763 0
-1648 -1792 0
-1649 -1793 0
-1650 -1794 0
-1651 -1795 0
-1652 -1796 0
-1653 -1797 0
-1654 -1798 0
-1655 -1799 0
-1656 -1800 0
-1648 -1900 0
-1649 -1901 0
-1650 -1902 0
-1651 -1903 0
-1652 -1904 0
-1653 -1905 0
-1654 -1906 0
-1655 -1907 0
-1656 -1908 0
-1648 -2125 0
-1649 -2126 0
-1650 -2127 0
-1651 -2128 0
-1652 -2129 0
-1653 -2130 0
-1654 -2131 0
-1655 -2132 0
-1656 -2133 0
-1648 -2152 0
-1649 -2153 0
-1650 -2154 0
-1651 -2155 0
-1652 -2156 0
-1653 -2157 0
-1654 -2158 0
-1655 -2159 0
-1656 -2160 0
-1648 -2197 0
-1649 -2198 0
-1650 -2199 0
-1651 -2200 0
-1652 -2201 0
-1653 -2202 0
-1654 -2203 0
-1655 -2204 0
-1656 -2205 0
-1648 -2323 0
-1649 -2324 0
-1650 -2325 0
-1651 -2326 0
-1652 -2327 0
-1653 -2328 0
-1654 -2329 0
-1655 -2330 0
-1656 -2331 0
-1648 -2368 0
-1649 -2369 0
-1650 -2370 0
-1651 -2371 0
-1652 -2372 0
-1653 -2373 0
-1654 -2374 0
-1655 -2375 0
-1656 -2376 0
-1648 -2431 0
-1649 -2432 0
-1650 -2433 0
-1651 -2434 0
-1652 -2435 0
-1653 -2436 0
-1654 -2437 0
-1655 -2438 0
-1656 -2439 0
-1648 -2476 0
-1649 -2477 0
-1650 -2478 0
-1651 -2479 0
-1652 -2480 0
-1653 -2481 0
-1654 -2482 0
-1655 -2483 0
-1656 -2484 0
-1648 -2782 0
-1649 -2783 0
-1650 -2784 0
-1651 -2785 0
-1652 -2786 0
-1653 -2787 0
-1654 -2788 0
-1655 -2789 0
-1656 -2790 0
-1657 -1765 0
-1658 -1766 0
-1659 -1767 0
-1660 -1768 0
-1661 -1769 0
-1662 -1770 0
-1663 -1771 0
-1664 -1772 0
-1665 -1773 0
-1657 -1828 0
-1658 -1829 0
-1659 -1830 0
-1660 -1831 0
-1661 -1832 0
-1662 -1833 0
-1663 -1834 0
-1664 -1835 0
-1665 -1836 0
-1657 -1990 0
-1658 -1991 0
-1659 -1992 0
-1660 -1993 0
-1661 -1994 0
-1662 -1995 0
-1663 -1996 0
-1664 -1997 0
-1665 -1998 0
-1657 -2170 0
-1658 -2171 0
-1659 -2172 0
-1660 -2173 0
-1661 -2174 0
-1662 -2175 0
-1663 -2176 0
-1664 -2177 0
-1665 -2178 0
-1657 -2404 0
-1658 -2405 0
-1659 -2406 0
-1660 -2407 0
-1661 -2408 0
-1662 -2409 0
-1663 -2410 0
-1664 -2411 0
-1665 -2412 0
-1657 -2611 0
-1658 -2612 0
-1659 -2613 0
-1660 -2614 0
-1661 -2615 0
-1662 -2616 0
-1663 -2617 0
-1664 -2618 0
-1665 -2619 0
-1657 -2791 0
-1658 -2792 0
-1659 -2793 0
-1660 -2794 0
-1661 -2795 0
-1662 -2796 0
-1663 -2797 0
-1664 -2798 0
-1665 -2799 0
-1657 -2800 0
-1658 -2801 0
-1659 -2802 0
-1660 -2803 0
-1661 -2804 0
-1662 -2805 0
-1663 -2806 0
-1664 -2807 0
-1665 -2808 0
-1657 -2809 0
-1658 -2810 0
-1659 -2811 0
-1660 -2812 0
-1661 -2813 0
-1662 -2814 0
-1663 -2815 0
-1664 -2816 0
-1665 -2817 0
-1657 -2836 0
-1658 -2837 0
-1659 -2838 0
-1660 -2839 0
-1661 -2840 0
-1662 -2841 0
-1663 -2842 0
-1664 -2843 0
-1665 -2844 0
-1657 -2854 0
-1658 -2855 0
-1659 -2856 0
-1660 -2857 0
-1661 -2858 0
-1662 -2859 0
-1663 -2860 0
-1664 -2861 0
-1665 -2862 0
-1666 -1756 0
-1667 -1757 0
-1668 -1758 0
-1669 -1759 0
-1670 -1760 0
-1671 -1761 0
-1672 -1762 0
-1673 -1763 0
-1674 -1764 0
-1666 -1963 0
-1667 -1964 0
-1668 -1965 0
-1669 -1966 0
-1670 -1967 0
-1671 -1968 0
-1672 -1969 0
-1673 -1970 0
-1674 -1971 0
-1666 -2044 0
-1667 -2045 0
-1668 -2046 0
-1669 -2047 0
-1670 -2048 0
-1671 -2049 0
-1672 -2050 0
-1673 -2051 0
-1674 -2052 0
-1666 -2197 0
-1667 -2198 0
-1668 -2199 0
-1669 -2200 0
-1670 -2201 0
-1671 -2202 0
-1672 -2203 0
-1673 -2204 0
-1674 -2205 0
-1666 -2395 0
-1667 -2396 0
-1668 -2397 0
-1669 -2398 0
-1670 -2399 0
-1671 -2400 0
-1672 -2401 0
-1673 -2402 0
-1674 -2403 0
-1666 -2557 0
-1667 -2558 0
-1668 -2559 0
-1669 -2560 0
-1670 -2561 0
-1671 -2562 0
-1672 -2563 0
-1673 -2564 0
-1674 -2565 0
-1666 -2818 0
-1667 -2819 0
-1668 -2820 0
-1669 -2821 0
-1670 -2822 0
-1671 -2823 0
-1672 -2824 0
-1673 -2825 0
-1674 -2826 0
-1666 -2827 0
-1667 -2828 0
-1668 -2829 0
-1669 -2830 0
-1670 -2831 0
-1671 -2832 0
-1672 -2833 0
-1673 -2834 0
-1674 -2835 0
-1666 -2845 0
-1667 -2846 0
-1668 -2847 0
-1669 -2848 0
-1670 -2849 0
-1671 -2850 0
-1672 -2851 0
-1673 -2852 0
-1674 -2853 0
-1666 -2863 0
-1667 -2864 0
-1668 -2865 0
-1669 -2866 0
-1670 -2867 0
-1671 -2868 0
-1672 -2869 0
-1673 -2870 0
-1674 -2871 0
-1666 -2872 0
-1667 -2873 0
-1668 -2874 0
-1669 -2875 0
-1670 -2876 0
-1671 -2877 0
-1672 -2878 0
-1673 -2879 0
-1674 -2880 0
-1675 -1729 0
-1676 -1730 0
-1677 -1731 0
-1678 -1732 0
-1679 -1733 0
-1680 -1734 0
-1681 -1735 0
-1682 -1736 0
-1683 -1737 0
-1675 -1738 0
-1676 -1739 0
-1677 -1740 0
-1678 -1741 0
-1679 -1742 0
-1680 -1743 0
-1681 -1744 0
-1682 -1745 0
-1683 -1746 0
-1675 -1747 0
-1676 -1748 0
-1677 -1749 0
-1678 -1750 0
-1679 -1751 0
-1680 -1752 0
-1681 -1753 0
-1682 -1754 0
-1683 -1755 0
-1675 -2251 0
-1676 -2252 0
-1677 -2253 0
-1678 -2254 0
-1679 -2255 0
-1680 -2256 0
-1681 -2257 0
-1682 -2258 0
-1683 -2259 0
-1675 -2575 0
-1676 -2576 0
-1677 -2577 0
-1678 -2578 0
-1679 -2579 0
-1680 -2580 0
-1681 -2581 0
-1682 -2582 0
-1683 -2583 0
-1684 -1774 0
-1685 -1775 0
-1686 -1776 0
-1687 -1777 0
-1688 -1778 0
-1689 -1779 0
-1690 -1780 0
-1691 -1781 0
-1692 -1782 0
-1684 -1801 0
-1685 -1802 0
-1686 -1803 0
-1687 -1804 0
-1688 -1805 0
-1689 -1806 0
-1690 -1807 0
-1691 -1808 0
-1692 -1809 0
-1684 -1882 0
-1685 -1883 0
-1686 -1884 0
-1687 -1885 0
-1688 -1886 0
-1689 -1887 0
-1690 -1888 0
-1691 -1889 0
-1692 -1890 0
-1684 -2080 0
-1685 -2081 0
-1686 -2082 0
-1687 -2083 0
-1688 -2084 0
-1689 -2085 0
-1690 -2086 0
-1691 -2087 0
-1692 -2088 0
-1684 -2170 0
-1685 -2171 0
-1686 -2172 0
-1687 -2173 0
-1688 -2174 0
-1689 -2175 0
-1690 -2176 0
-1691 -2177 0
-1692 -2178 0
-1684 -2251 0
-1685 -2252 0
-1686 -2253 0
-1687 -2254 0
-1688 -2255 0
-1689 -2256 0
-1690 -2257 0
-1691 -2258 0
-1692 -2259 0
-1684 -2287 0
-1685 -2288 0
-1686 -2289 0
-1687 -2290 0
-1688 -2291 0
-1689 -2292 0
-1690 -2293 0
-1691 -2294 0
-1692 -2295 0
-1684 -2386 0
-1685 -2387 0
-1686 -2388 0
-1687 -2389 0
-1688 -2390 0
-1689 -2391 0
-1690 -2392 0
-1691 -2393 0
-1692 -2394 0
-1684 -2422 0
-1685 -2423 0
-1686 -2424 0
-1687 -2425 0
-1688 -2426 0
-1689 -2427 0
-1690 -2428 0
-1691 -2429 0
-1692 -2430 0
-1684 -2584 0
-1685 -2585 0
-1686 -2586 0
-1687 -2587 0
-1688 -2588 0
-1689 -2589 0
-1690 -2590 0
-1691 -2591 0
-1692 -2592 0
-1684 -2809 0
-1685 -2810 0
-1686 -2811 0
-1687 -2812 0
-1688 -2813 0
-1689 -2814 0
-1690 -2815 0
-1691 -2816 0
-1692 -2817 0
-1693 -1783 0
-1694 -1784 0
-1695 -1785 0
-1696 -1786 0
-1697 -1787 0
-1698 -1788 0
-1699 -1789 0
-1700 -1790 0
-1701 -1791 0
-1693 -1792 0
-1694 -1793 0
-1695 -1794 0
-1696 -1795 0
-1697 -1796 0
-1698 -1797 0
-1699 -1798 0
-1700 -1799 0
-1701 -1800 0
-1693 -1864 0
-1694 -1865 0
-1695 -1866 0
-1696 -1867 0
-1697 -1868 0
-1698 -1869 0
-1699 -1870 0
-1700 -1871 0
-1701 -1872 0
-1693 -1963 0
-1694 -1964 0
-1695 -1965 0
-1696 -1966 0
-1697 -1967 0
-1698 -1968 0
-1699 -1969 0
-1700 -1970 0
-1701 -1971 0
-1693 -2098 0
-1694 -2099 0
-1695 -2100 0
-1696 -2101 0
-1697 -2102 0
-1698 -2103 0
-1699 -2104 0
-1700 -2105 0
-1701 -2106 0
-1693 -2251 0
-1694 -2252 0
-1695 -2253 0
-1696 -2254 0
-1697 -2255 0
-1698 -2256 0
-1699 -2257 0
-1700 -2258 0
-1701 -2259 0
-1693 -2323 0
-1694 -2324 0
-1695 -2325 0
-1696 -2326 0
-1697 -2327 0
-1698 -2328 0
-1699 -2329 0
-1700 -2330 0
-1701 -2331 0
-1693 -2350 0
-1694 -2351 0
-1695 -2352 0
-1696 -2353 0
-1697 -2354 0
-1698 -2355 0
-1699 -2356 0
-1700 -2357 0
-1701 -2358 0
-1693 -2431 0
-1694 -2432 0
-1695 -2433 0
-1696 -2434 0
-1697 -2435 0
-1698 -2436 0
-1699 -2437 0
-1700 -2438 0
-1701 -2439 0
-1693 -2629 0
-1694 -2630 0
-1695 -2631 0
-1696 -2632 0
-1697 -2633 0
-1698 -2634 0
-1699 -2635 0
-1700 -2636 0
-1701 -2637 0
-1693 -2872 0
-1694 -2873 0
-1695 -2874 0
-1696 -2875 0
-1697 -2876 0
-1698 -2877 0
-1699 -2878 0
-1700 -2879 0
-1701 -2880 0
-1702 -1837 0
-1703 -1838 0
-1704 -1839 0
-1705 -1840 0
-1706 -1841 0
-1707 -1842 0
-1708 -1843 0
-1709 -1844 0
-1710 -1845 0
-1702 -1855 0
-1703 -1856 0
-1704 -1857 0
-1705 -1858 0
-1706 -1859 0
-1707 -1860 0
-1708 -1861 0
-1709 -1862 0
-1710 -1863 0
-1702 -2053 0
-1703 -2054 0
-1704 -2055 0
-1705 -2056 0
-1706 -2057 0
-1707 -2058 0
-1708 -2059 0
-1709 -2060 0
-1710 -2061 0
-1702 -2071 0
-1703 -2072 0
-1704 -2073 0
-1705 -2074 0
-1706 -2075 0
-1707 -2076 0
-1708 -2077 0
-1709 -2078 0
-1710 -2079 0
-1702 -2548 0
-1703 -2549 0
-1704 -2550 0
-1705 -2551 0
-1706 -2552 0
-1707 -2553 0
-1708 -2554 0
-1709 -2555 0
-1710 -2556 0
-1702 -2809 0
-1703 -2810 0
-1704 -2811 0
-1705 -2812 0
-1706 -2813 0
-1707 -2814 0
-1708 -2815 0
-1709 -2816 0
-1710 -2817 0
-1702 -2872 0
-1703 -2873 0
-1704 -2874 0
-1705 -2875 0
-1706 -2876 0
-1707 -2877 0
-1708 -2878 0
-1709 -2879 0
-1710 -2880 0
-1711 -2755 0
-1712 -2756 0
-1713 -2757 0
-1714 -2758 0
-1715 -2759 0
-1716 -2760 0
-1717 -2761 0
-1718 -2762 0
-1719 -2763 0
-1711 -2800 0
-1712 -2801 0
-1713 -2802 0
-1714 -2803 0
-1715 -2804 0
-1716 -2805 0
-1717 -2806 0
-1718 -2807 0
-1719 -2808 0
-1720 -2782 0
-1721 -2783 0
-1722 -2784 0
-1723 -2785 0
-1724 -2786 0
-1725 -2787 0
-1726 -2788 0
-1727 -2789 0
-1728 -2790 0
-1720 -2818 0
-1721 -2819 0
-1722 -2820 0
-1723 -2821 0
-1724 -2822 0
-1725 -2823 0
-1726 -2824 0
-1727 -2825 0
-1728 -2826 0
-1729 -1756 0
-1730 -1757 0
-1731 -1758 0
-1732 -1759 0
-1733 -1760 0
-1734 -1761 0
-1735 -1762 0
-1736 -1763 0
-1737 -1764 0
-1729 -1765 0
-1730 -1766 0
-1731 -1767 0
-1732 -1768 0
-1733 -1769 0
-1734 -1770 0
-1735 -1771 0
-1736 -1772 0
-1737 -1773 0
-1729 -1864 0
-1730 -1865 0
-1731 -1866 0
-1732 -1867 0
-1733 -1868 0
-1734 -1869 0
-1735 -1870 0
-1736 -1871 0
-1737 -1872 0
-1729 -2080 0
-1730 -2081 0
-1731 -2082 0
-1732 -2083 0
-1733 -2084 0
-1734 -2085 0
-1735 -2086 0
-1736 -2087 0
-1737 -2088 0
-1729 -2251 0
-1730 -2252 0
-1731 -2253 0
-1732 -2254 0
-1733 -2255 0
-1734 -2256 0
-1735 -2257 0
-1736 -2258 0
-1737 -2259 0
-1729 -2593 0
-1730 -2594 0
-1731 -2595 0
-1732 -2596 0
-1733 -2597 0
-1734 -2598 0
-1735 -2599 0
-1736 -2600 0
-1737 -2601 0
-1729 -2638 0
-1730 -2639 0
-1731 -2640 0
-1732 -2641 0
-1733 -2642 0
-1734 -2643 0
-1735 -2644 0
-1736 -2645 0
-1737 -2646 0
-1738 -1747 0
-1739 -1748 0
-1740 -1749 0
-1741 -1750 0
-1742 -1751 0
-1743 -1752 0
-1744 -1753 0
-1745 -1754 0
-1746 -1755 0
-1738 -1819 0
-1739 -1820 0
-1740 -1821 0
-1741 -1822 0
-1742 -1823 0
-1743 -1824 0
-1744 -1825 0
-1745 -1826 0
-1746 -1827 0
-1738 -1864 0
-1739 -1865 0
-1740 -1866 0
-1741 -1867 0
-1742 -1868 0
-1743 -1869 0
-1744 -1870 0
-1745 -1871 0
-1746 -1872 0
-1738 -1873 0
-1739 -1874 0
-1740 -1875 0
-1741 -1876 0
-1742 -1877 0
-1743 -1878 0
-1744 -1879 0
-1745 -1880 0
-1746 -1881 0
-1738 -1972 0
-1739 -1973 0
-1740 -1974 0
-1741 -1975 0
-1742 -1976 0
-1743 -1977 0
-1744 -1978 0
-1745 -1979 0
-1746 -1980 0
-1738 -1981 0
-1739 -1982 0
-1740 -1983 0
-1741 -1984 0
-1742 -1985 0
-1743 -1986 0
-1744 -1987 0
-1745 -1988 0
-1746 -1989 0
-1738 -1990 0
-1739 -1991 0
-1740 -1992 0
-1741 -1993 0
-1742 -1994 0
-1743 -1995 0
-1744 -1996 0
-1745 -1997 0
-1746 -1998 0
-1738 -2305 0
-1739 -2306 0
-1740 -2307 0
-1741 -2308 0
-1742 -2309 0
-1743 -2310 0
-1744 -2311 0
-1745 -2312 0
-1746 -2313 0
-1738 -2314 0
-1739 -2315 0
-1740 -2316 0
-1741 -2317 0
-1742 -2318 0
-1743 -2319 0
-1744 -2320 0
-1745 -2321 0
-1746 -2322 0
-1738 -2332 0
-1739 -2333 0
-1740 -2334 0
-1741 -2335 0
-1742 -2336 0
-1743 -2337 0
-1744 -2338 0
-1745 -2339 0
-1746 -2340 0
-1738 -2539 0
-1739 -2540 0
-1740 -2541 0
-1741 -2542 0
-1742 -2543 0
-1743 -2544 0
-1744 -2545 0
-1745 -2546 0
-1746 -2547 0
-1738 -2593 0
-1739 -2594 0
-1740 -2595 0
-1741 -2596 0
-1742 -2597 0
-1743 -2598 0
-1744 -2599 0
-1745 -2600 0
-1746 -2601 0
-1738 -2746 0
-1739 -2747 0
-1740 -2748 0
-1741 -2749 0
-1742 -2750 0
-1743 -2751 0
-1744 -2752 0
-1745 -2753 0
-1746 -2754 0
-1738 -2800 0
-1739 -2801 0
-1740 -2802 0
-1741 -2803 0
-1742 -2804 0
-1743 -2805 0
-1744 -2806 0
-1745 -2807 0
-1746 -2808 0
-1738 -2926 0
-1739 -2927 0
-1740 -2928 0
-1741 -2929 0
-1742 -2930 0
-1743 -2931 0
-1744 -2932 0
-1745 -2933 0
-1746 -2934 0
-1747 -1810 0
-1748 -1811 0
-1749 -1812 0
-1750 -1813 0
-1751 -1814 0
-1752 -1815 0
-1753 -1816 0
-1754 -1817 0
-1755 -1818 0
-1747 -2080 0
-1748 -2081 0
-1749 -2082 0
-1750 -2083 0
-1751 -2084 0
-1752 -2085 0
-1753 -2086 0
-1754 -2087 0
-1755 -2088 0
-1747 -2089 0
-1748 -2090 0
-1749 -2091 0
-1750 -2092 0
-1751 -2093 0
-1752 -2094 0
-1753 -2095 0
-1754 -2096 0
-1755 -2097 0
-1747 -2179 0
-1748 -2180 0
-1749 -2181 0
-1750 -2182 0
-1751 -2183 0
-1752 -2184 0
-1753 -2185 0
-1754 -2186 0
-1755 -2187 0
-1747 -2188 0
-1748 -2189 0
-1749 -2190 0
-1750 -2191 0
-1751 -2192 0
-1752 -2193 0
-1753 -2194 0
-1754 -2195 0
-1755 -2196 0
-1747 -2197 0
-1748 -2198 0
-1749 -2199 0
-1750 -2200 0
-1751 -2201 0
-1752 -2202 0
-1753 -2203 0
-1754 -2204 0
-1755 -2205 0
-1747 -2260 0
-1748 -2261 0
-1749 -2262 0
-1750 -2263 0
-1751 -2264 0
-1752 -2265 0
-1753 -2266 0
-1754 -2267 0
-1755 -2268 0
-1747 -2368 0
-1748 -2369 0
-1749 -2370 0
-1750 -2371 0
-1751 -2372 0
-1752 -2373 0
-1753 -2374 0
-1754 -2375 0
-1755 -2376 0
-1747 -2377 0
-1748 -2378 0
-1749 -2379 0
-1750 -2380 0
-1751 -2381 0
-1752 -2382 0
-1753 -2383 0
-1754 -2384 0
-1755 -2385 0
-1747 -2539 0
-1748 -2540 0
-1749 -2541 0
-1750 -2542 0
-1751 -2543 0
-1752 -2544 0
-1753 -2545 0
-1754 -2546 0
-1755 -2547 0
-1747 -2638 0
-1748 -2639 0
-1749 -2640 0
-1750 -2641 0
-1751 -2642 0
-1752 -2643 0
-1753 -2644 0
-1754 -2645 0
-1755 -2646 0
-1747 -2773 0
-1748 -2774 0
-1749 -2775 0
-1750 -2776 0
-1751 -2777 0
-1752 -2778 0
-1753 -2779 0
-1754 -2780 0
-1755 -2781 0
-1747 -2818 0
-1748 -2819 0
-1749 -2820 0
-1750 -2821 0
-1751 -2822 0
-1752 -2823 0
-1753 -2824 0
-1754 -2825 0
-1755 -2826 0
-1747 -2926 0
-1748 -2927 0
-1749 -2928 0
-1750 -2929 0
-1751 -2930 0
-1752 -2931 0
-1753 -2932 0
-1754 -2933 0
-1755 -2934 0
-1756 -1837 0
-1757 -1838 0
-1758 -1839 0
-1759 -1840 0
-1760 -1841 0
-1761 -1842 0
-1762 -1843 0
-1763 -1844 0
-1764 -1845 0
-1756 -2107 0
-1757 -2108 0
-1758 -2109 0
-1759 -2110 0
-1760 -2111 0
-1761 -2112 0
-1762 -2113 0
-1763 -2114 0
-1764 -2115 0
-1756 -2125 0
-1757 -2126 0
-1758 -2127 0
-1759 -2128 0
-1760 -2129 0
-1761 -2130 0
-1762 -2131 0
-1763 -2132 0
-1764 -2133 0
-1756 -2431 0
-1757 -2432 0
-1758 -2433 0
-1759 -2434 0
-1760 -2435 0
-1761 -2436 0
-1762 -2437 0
-1763 -2438 0
-1764 -2439 0
-1756 -2458 0
-1757 -2459 0
-1758 -2460 0
-1759 -2461 0
-1760 -2462 0
-1761 -2463 0
-1762 -2464 0
-1763 -2465 0
-1764 -2466 0
-1756 -2755 0
-1757 -2756 0
-1758 -2757 0
-1759 -2758 0
-1760 -2759 0
-1761 -2760 0
-1762 -2761 0
-1763 -2762 0
-1764 -2763 0
-1756 -2818 0
-1757 -2819 0
-1758 -2820 0
-1759 -2821 0
-1760 -2822 0
-1761 -2823 0
-1762 -2824 0
-1763 -2825 0
-1764 -2826 0
-1756 -2908 0
-1757 -2909 0
-1758 -2910 0
-1759 -2911 0
-1760 -2912 0
-1761 -2913 0
-1762 -2914 0
-1763 -2915 0
-1764 -2916 0
-1756 -2926 0
-1757 -2927 0
-1758 -2928 0
-1759 -2929 0
-1760 -2930 0
-1761 -2931 0
-1762 -2932 0
-1763 -2933 0
-1764 -2934 0
-1765 -1891 0
-1766 -1892 0
-1767 -1893 0
-1768 -1894 0
-1769 -1895 0
-1770 -1896 0
-1771 -1897 0
-1772 -1898 0
-1773 -1899 0
-1765 -1909 0
-1766 -1910 0
-1767 -1911 0
-1768 -1912 0
-1769 -1913 0
-1770 -1914 0
-1771 -1915 0
-1772 -1916 0
-1773 -1917 0
-1765 -2053 0
-1766 -2054 0
-1767 -2055 0
-1768 -2056 0
-1769 -2057 0
-1770 -2058 0
-1771 -2059 0
-1772 -2060 0
-1773 -2061 0
-1765 -2422 0
-1766 -2423 0
-1767 -2424 0
-1768 -2425 0
-1769 -2426 0
-1770 -2427 0
-1771 -2428 0
-1772 -2429 0
-1773 -2430 0
-1765 -2449 0
-1766 -2450 0
-1767 -2451 0
-1768 -2452 0
-1769 -2453 0
-1770 -2454 0
-1771 -2455 0
-1772 -2456 0
-1773 -2457 0
-1765 -2782 0
-1766 -2783 0
-1767 -2784 0
-1768 -2785 0
-1769 -2786 0
-1770 -2787 0
-1771 -2788 0
-1772 -2789 0
-1773 -2790 0
-1765 -2800 0
-1766 -2801 0
-1767 -2802 0
-1768 -2803 0
-1769 -2804 0
-1770 -2805 0
-1771 -2806 0
-1772 -2807 0
-1773 -2808 0
-1765 -2899 0
-1766 -2900 0
-1767 -2901 0
-1768 -2902 0
-1769 -2903 0
-1770 -2904 0
-1771 -2905 0
-1772 -2906 0
-1773 -2907 0
-1765 -2926 0
-1766 -2927 0
-1767 -2928 0
-1768 -2929 0
-1769 -2930 0
-1770 -2931 0
-1771 -2932 0
-1772 -2933 0
-1773 -2934 0
-1774 -1828 0
-1775 -1829 0
-1776 -1830 0
-1777 -1831 0
-1778 -1832 0
-1779 -1833 0
-1780 -1834 0
-1781 -1835 0
-1782 -1836 0
-1774 -1990 0
-1775 -1991 0
-1776 -1992 0
-1777 -1993 0
-1778 -1994 0
-1779 -1995 0
-1780 -1996 0
-1781 -1997 0
-1782 -1998 0
-1774 -2206 0
-1775 -2207 0
-1776 -2208 0
-1777 -2209 0
-1778 -2210 0
-1779 -2211 0
-1780 -2212 0
-1781 -2213 0
-1782 -2214 0
-1774 -2386 0
-1775 -2387 0
-1776 -2388 0
-1777 -2389 0
-1778 -2390 0
-1779 -2391 0
-1780 -2392 0
-1781 -2393 0
-1782 -2394 0
-1774 -2512 0
-1775 -2513 0
-1776 -2514 0
-1777 -2515 0
-1778 -2516 0
-1779 -2517 0
-1780 -2518 0
-1781 -2519 0
-1782 -2520 0
-1774 -2602 0
-1775 -2603 0
-1776 -2604 0
-1777 -2605 0
-1778 -2606 0
-1779 -2607 0
-1780 -2608 0
-1781 -2609 0
-1782 -2610 0
-1774 -2791 0
-1775 -2792 0
-1776 -2793 0
-1777 -2794 0
-1778 -2795 0
-1779 -2796 0
-1780 -2797 0
-1781 -2798 0
-1782 -2799 0
-1774 -2926 0
-1775 -2927 0
-1776 -2928 0
-1777 -2929 0
-1778 -2930 0
-1779 -2931 0
-1780 -2932 0
-1781 -2933 0
-1782 -2934 0
-1783 -1999 0
-1784 -2000 0
-1785 -2001 0
-1786 -2002 0
-1787 -2003 0
-1788 -2004 0
-1789 -2005 0
-1790 -2006 0
-1791 -2007 0
-1783 -2044 0
-1784 -2045 0
-1785 -2046 0
-1786 -2047 0
-1787 -2048 0
-1788 -2049 0
-1789 -2050 0
-1790 -2051 0
-1791 -2052 0
-1783 -2197 0
-1784 -2198 0
-1785 -2199 0
-1786 -2200 0
-1787 -2201 0
-1788 -2202 0
-1789 -2203 0
-1790 -2204 0
-1791 -2205 0
-1783 -2323 0
-1784 -2324 0
-1785 -2325 0
-1786 -2326 0
-1787 -2327 0
-1788 -2328 0
-1789 -2329 0
-1790 -2330 0
-1791 -2331 0
-1783 -2512 0
-1784 -2513 0
-1785 -2514 0
-1786 -2515 0
-1787 -2516 0
-1788 -2517 0
-1789 -2518 0
-1790 -2519 0
-1791 -2520 0
-1783 -2647 0
-1784 -2648 0
-1785 -2649 0
-1786 -2650 0
-1787 -2651 0
-1788 -2652 0
-1789 -2653 0
-1790 -2654 0
-1791 -2655 0
-1783 -2845 0
-1784 -2846 0
-1785 -2847 0
-1786 -2848 0
-1787 -2849 0
-1788 -2850 0
-1789 -2851 0
-1790 -2852 0
-1791 -2853 0
-1783 -2926 0
-1784 -2927 0
-1785 -2928 0
-1786 -2929 0
-1787 -2930 0
-1788 -2931 0
-1789 -2932 0
-1790 -2933 0
-1791 -2934 0
-1792 -1837 0
-1793 -1838 0
-1794 -1839 0
-1795 -1840 0
-1796 -1841 0
-1797 -1842 0
-1798 -1843 0
-1799 -1844 0
-1800 -1845 0
-1792 -1990 0
-1793 -1991 0
-1794 -1992 0
-1795 -1993 0
-1796 -1994 0
-1797 -1995 0
-1798 -1996 0
-1799 -1997 0
-1800 -1998 0
-1792 -2044 0
-1793 -2045 0
-1794 -2046 0
-1795 -2047 0
-1796 -2048 0
-1797 -2049 0
-1798 -2050 0
-1799 -2051 0
-1800 -2052 0
-1792 -2215 0
-1793 -2216 0
-1794 -2217 0
-1795 -2218 0
-1796 -2219 0
-1797 -2220 0
-1798 -2221 0
-1799 -2222 0
-1800 -2223 0
-1792 -2395 0
-1793 -2396 0
-1794 -2397 0
-1795 -2398 0
-1796 -2399 0
-1797 -2400 0
-1798 -2401 0
-1799 -2402 0
-1800 -2403 0
-1792 -2467 0
-1793 -2468 0
-1794 -2469 0
-1795 -2470 0
-1796 -2471 0
-1797 -2472 0
-1798 -2473 0
-1799 -2474 0
-1800 -2475 0
-1792 -2494 0
-1793 -2495 0
-1794 -2496 0
-1795 -2497 0
-1796 -2498 0
-1797 -2499 0
-1798 -2500 0
-1799 -2501 0
-1800 -2502 0
-1792 -2503 0
-1793 -2504 0
-1794 -2505 0
-1795 -2506 0
-1796 -2507 0
-1797 -2508 0
-1798 -2509 0
-1799 -2510 0
-1800 -2511 0
-1792 -2575 0
-1793 -2576 0
-1794 -2577 0
-1795 -2578 0
-1796 -2579 0
-1797 -2580 0
-1798 -2581 0
-1799 -2582 0
-1800 -2583 0
-1792 -2611 0
-1793 -2612 0
-1794 -2613 0
-1795 -2614 0
-1796 -2615 0
-1797 -2616 0
-1798 -2617 0
-1799 -2618 0
-1800 -2619 0
-1792 -2836 0
-1793 -2837 0
-1794 -2838 0
-1795 -2839 0
-1796 -2840 0
-1797 -2841 0
-1798 -2842 0
-1799 -2843 0
-1800 -2844 0
-1792 -2845 0
-1793 -2846 0
-1794 -2847 0
-1795 -2848 0
-1796 -2849 0
-1797 -2850 0
-1798 -2851 0
-1799 -2852 0
-1800 -2853 0
-1792 -2872 0
-1793 -2873 0
-1794 -2874 0
-1795 -2875 0
-1796 -2876 0
-1797 -2877 0
-1798 -2878 0
-1799 -2879 0
-1800 -2880 0
-1792 -2926 0
-1793 -2927 0
-1794 -2928 0
-1795 -2929 0
-1796 -2930 0
-1797 -2931 0
-1798 -2932 0
-1799 -2933 0
-1800 -2934 0
-1801 -1828 0
-1802 -1829 0
-1803 -1830 0
-1804 -1831 0
-1805 -1832 0
-1806 -1833 0
-1807 -1834 0
-1808 -1835 0
-1809 -1836 0
-1801 -2008 0
-1802 -2009 0
-1803 -2010 0
-1804 -2011 0
-1805 -2012 0
-1806 -2013 0
-1807 -2014 0
-1808 -2015 0
-1809 -2016 0
-1801 -2053 0
-1802 -2054 0
-1803 -2055 0
-1804 -2056 0
-1805 -2057 0
-1806 -2058 0
-1807 -2059 0
-1808 -2060 0
-1809 -2061 0
-1801 -2197 0
-1802 -2198 0
-1803 -2199 0
-1804 -2200 0
-1805 -2201 0
-1806 -2202 0
-1807 -2203 0
-1808 -2204 0
-1809 -2205 0
-1801 -2404 0
-1802 -2405 0
-1803 -2406 0
-1804 -2407 0
-1805 -2408 0
-1806 -2409 0
-1807 -2410 0
-1808 -2411 0
-1809 -2412 0
-1801 -2476 0
-1802 -2477 0
-1803 -2478 0
-1804 -2479 0
-1805 -2480 0
-1806 -2481 0
-1807 -2482 0
-1808 -2483 0
-1809 -2484 0
-1801 -2494 0
-1802 -2495 0
-1803 -2496 0
-1804 -2497 0
-1805 -2498 0
-1806 -2499 0
-1807 -2500 0
-1808 -2501 0
-1809 -2502 0
-1801 -2503 0
-1802 -2504 0
-1803 -2505 0
-1804 -2506 0
-1805 -2507 0
-1806 -2508 0
-1807 -2509 0
-1808 -2510 0
-1809 -2511 0
-1801 -2557 0
-1802 -2558 0
-1803 -2559 0
-1804 -2560 0
-1805 -2561 0
-1806 -2562 0
-1807 -2563 0
-1808 -2564 0
-1809 -2565 0
-1801 -2575 0
-1802 -2576 0
-1803 -2577 0
-1804 -2578 0
-1805 -2579 0
-1806 -2580 0
-1807 -2581 0
-1808 -2582 0
-1809 -2583 0
-1801 -2791 0
-1802 -2792 0
-1803 -2793 0
-1804 -2794 0
-1805 -2795 0
-1806 -2796 0
-1807 -2797 0
-1808 -2798 0
-1809 -2799 0
-1801 -2809 0
-1802 -2810 0
-1803 -2811 0
-1804 -2812 0
-1805 -2813 0
-1806 -2814 0
-1807 -2815 0
-1808 -2816 0
-1809 -2817 0
-1801 -2863 0
-1802 -2864 0
-1803 -2865 0
-1804 -2866 0
-1805 -2867 0
-1806 -2868 0
-1807 -2869 0
-1808 -2870 0
-1809 -2871 0
-1801 -2926 0
-1802 -2927 0
-1803 -2928 0
-1804 -2929 0
-1805 -2930 0
-1806 -2931 0
-1807 -2932 0
-1808 -2933 0
-1809 -2934 0
-1810 -2485 0
-1811 -2486 0
-1812 -2487 0
-1813 -2488 0
-1814 -2489 0
-1815 -2490 0
-1816 -2491 0
-1817 -2492 0
-1818 -2493 0
-1810 -2800 0
-1811 -2801 0
-1812 -2802 0
-1813 -2803 0
-1814 -2804 0
-1815 -2805 0
-1816 -2806 0
-1817 -2807 0
-1818 -2808 0
-1819 -2485 0
-1820 -2486 0
-1821 -2487 0
-1822 -2488 0
-1823 -2489 0
-1824 -2490 0
-1825 -2491 0
-1826 -2492 0
-1827 -2493 0
-1819 -2818 0
-1820 -2819 0
-1821 -2820 0
-1822 -2821 0
-1823 -2822 0
-1824 -2823 0
-1825 -2824 0
-1826 -2825 0
-1827 -2826 0
-1828 -1855 0
-1829 -1856 0
-1830 -1857 0
-1831 -1858 0
-1832 -1859 0
-1833 -1860 0
-1834 -1861 0
-1835 -1862 0
-1836 -1863 0
-1828 -1891 0
-1829 -1892 0
-1830 -1893 0
-1831 -1894 0
-1832 -1895 0
-1833 -1896 0
-1834 -1897 0
-1835 -1898 0
-1836 -1899 0
-1828 -1954 0
-1829 -1955 0
-1830 -1956 0
-1831 -1957 0
-1832 -1958 0
-1833 -1959 0
-1834 -1960 0
-1835 -1961 0
-1836 -1962 0
-1828 -2143 0
-1829 -2144 0
-1830 -2145 0
-1831 -2146 0
-1832 -2147 0
-1833 -2148 0
-1834 -2149 0
-1835 -2150 0
-1836 -2151 0
-1828 -2170 0
-1829 -2171 0
-1830 -2172 0
-1831 -2173 0
-1832 -2174 0
-1833 -2175 0
-1834 -2176 0
-1835 -2177 0
-1836 -2178 0
-1828 -2206 0
-1829 -2207 0
-1830 -2208 0
-1831 -2209 0
-1832 -2210 0
-1833 -2211 0
-1834 -2212 0
-1835 -2213 0
-1836 -2214 0
-1828 -2332 0
-1829 -2333 0
-1830 -2334 0
-1831 -2335 0
-1832 -2336 0
-1833 -2337 0
-1834 -2338 0
-1835 -2339 0
-1836 -2340 0
-1828 -2575 0
-1829 -2576 0
-1830 -2577 0
-1831 -2578 0
-1832 -2579 0
-1833 -2580 0
-1834 -2581 0
-1835 -2582 0
-1836 -2583 0
-1837 -1846 0
-1838 -1847 0
-1839 -1848 0
-1840 -1849 0
-1841 -1850 0
-1842 -1851 0
-1843 -1852 0
-1844 -1853 0
-1845 -1854 0
-1837 -1873 0
-1838 -1874 0
-1839 -1875 0
-1840 -1876 0
-1841 -1877 0
-1842 -1878 0
-1843 -1879 0
-1844 -1880 0
-1845 -1881 0
-1837 -1963 0
-1838 -1964 0
-1839 -1965 0
-1840 -1966 0
-1841 -1967 0
-1842 -1968 0
-1843 -1969 0
-1844 -1970 0
-1845 -1971 0
-1837 -2107 0
-1838 -2108 0
-1839 -2109 0
-1840 -2110 0
-1841 -2111 0
-1842 -2112 0
-1843 -2113 0
-1844 -2114 0
-1845 -2115 0
-1837 -2179 0
-1838 -2180 0
-1839 -2181 0
-1840 -2182 0
-1841 -2183 0
-1842 -2184 0
-1843 -2185 0
-1844 -2186 0
-1845 -2187 0
-1837 -2215 0
-1838 -2216 0
-1839 -2217 0
-1840 -2218 0
-1841 -2219 0
-1842 -2220 0
-1843 -2221 0
-1844 -2222 0
-1845 -2223 0
-1837 -2350 0
-1838 -2351 0
-1839 -2352 0
-1840 -2353 0
-1841 -2354 0
-1842 -2355 0
-1843 -2356 0
-1844 -2357 0
-1845 -2358 0
-1837 -2629 0
-1838 -2630 0
-1839 -2631 0
-1840 -2632 0
-1841 -2633 0
-1842 -2634 0
-1843 -2635 0
-1844 -2636 0
-1845 -2637 0
-1846 -1945 0
-1847 -1946 0
-1848 -1947 0
-1849 -1948 0
-1850 -1949 0
-1851 -1950 0
-1852 -1951 0
-1853 -1952 0
-1854 -1953 0
-1846 -2062 0
-1847 -2063 0
-1848 -2064 0
-1849 -2065 0
-1850 -2066 0
-1851 -2067 0
-1852 -2068 0
-1853 -2069 0
-1854 -2070 0
-1846 -2143 0
-1847 -2144 0
-1848 -2145 0
-1849 -2146 0
-1850 -2147 0
-1851 -2148 0
-1852 -2149 0
-1853 -2150 0
-1854 -2151 0
-1846 -2656 0
-1847 -2657 0
-1848 -2658 0
-1849 -2659 0
-1850 -2660 0
-1851 -2661 0
-1852 -2662 0
-1853 -2663 0
-1854 -2664 0
-1855 -1945 0
-1856 -1946 0
-1857 -1947 0
-1858 -1948 0
-1859 -1949 0
-1860 -1950 0
-1861 -1951 0
-1862 -1952 0
-1863 -1953 0
-1855 -2602 0
-1856 -2603 0
-1857 -2604 0
-1858 -2605 0
-1859 -2606 0
-1860 -2607 0
-1861 -2608 0
-1862 -2609 0
-1863 -2610 0
-1864 -1999 0
-1865 -2000 0
-1866 -2001 0
-1867 -2002 0
-1868 -2003 0
-1869 -2004 0
-1870 -2005 0
-1871 -2006 0
-1872 -2007 0
-1864 -2125 0
-1865 -2126 0
-1866 -2127 0
-1867 -2128 0
-1868 -2129 0
-1869 -2130 0
-1870 -2131 0
-1871 -2132 0
-1872 -2133 0
-1864 -2305 0
-1865 -2306 0
-1866 -2307 0
-1867 -2308 0
-1868 -2309 0
-1869 -2310 0
-1870 -2311 0
-1871 -2312 0
-1872 -2313 0
-1864 -2377 0
-1865 -2378 0
-1866 -2379 0
-1867 -2380 0
-1868 -2381 0
-1869 -2382 0
-1870 -2383 0
-1871 -2384 0
-1872 -2385 0
-1864 -2431 0
-1865 -2432 0
-1866 -2433 0
-1867 -2434 0
-1868 -2435 0
-1869 -2436 0
-1870 -2437 0
-1871 -2438 0
-1872 -2439 0
-1864 -2512 0
-1865 -2513 0
-1866 -2514 0
-1867 -2515 0
-1868 -2516 0
-1869 -2517 0
-1870 -2518 0
-1871 -2519 0
-1872 -2520 0
-1864 -2800 0
-1865 -2801 0
-1866 -2802 0
-1867 -2803 0
-1868 -2804 0
-1869 -2805 0
-1870 -2806 0
-1871 -2807 0
-1872 -2808 0
-1873 -1963 0
-1874 -1964 0
-1875 -1965 0
-1876 -1966 0
-1877 -1967 0
-1878 -1968 0
-1879 -1969 0
-1880 -1970 0
-1881 -1971 0
-1873 -2161 0
-1874 -2162 0
-1875 -2163 0
-1876 -2164 0
-1877 -2165 0
-1878 -2166 0
-1879 -2167 0
-1880 -2168 0
-1881 -2169 0
-1873 -2350 0
-1874 -2351 0
-1875 -2352 0
-1876 -2353 0
-1877 -2354 0
-1878 -2355 0
-1879 -2356 0
-1880 -2357 0
-1881 -2358 0
-1873 -2611 0
-1874 -2612 0
-1875 -2613 0
-1876 -2614 0
-1877 -2615 0
-1878 -2616 0
-1879 -2617 0
-1880 -2618 0
-1881 -2619 0
-1873 -2737 0
-1874 -2738 0
-1875 -2739 0
-1876 -2740 0
-1877 -2741 0
-1878 -2742 0
-1879 -2743 0
-1880 -2744 0
-1881 -2745 0
-1873 -2746 0
-1874 -2747 0
-1875 -2748 0
-1876 -2749 0
-1877 -2750 0
-1878 -2751 0
-1879 -2752 0
-1880 -2753 0
-1881 -2754 0
-1873 -2755 0
-1874 -2756 0
-1875 -2757 0
-1876 -2758 0
-1877 -2759 0
-1878 -2760 0
-1879 -2761 0
-1880 -2762 0
-1881 -2763 0
-1873 -2818 0
-1874 -2819 0
-1875 -2820 0
-1876 -2821 0
-1877 -2822 0
-1878 -2823 0
-1879 -2824 0
-1880 -2825 0
-1881 -2826 0
-1873 -2872 0
-1874 -2873 0
-1875 -2874 0
-1876 -2875 0
-1877 -2876 0
-1878 -2877 0
-1879 -2878 0
-1880 -2879 0
-1881 -2880 0
-1882 -1981 0
-1883 -1982 0
-1884 -1983 0
-1885 -1984 0
-1886 -1985 0
-1887 -1986 0
-1888 -1987 0
-1889 -1988 0
-1890 -1989 0
-1882 -2116 0
-1883 -2117 0
-1884 -2118 0
-1885 -2119 0
-1886 -2120 0
-1887 -2121 0
-1888 -2122 0
-1889 -2123 0
-1890 -2124 0
-1882 -2152 0
-1883 -2153 0
-1884 -2154 0
-1885 -2155 0
-1886 -2156 0
-1887 -2157 0
-1888 -2158 0
-1889 -2159 0
-1890 -2160 0
-1882 -2224 0
-1883 -2225 0
-1884 -2226 0
-1885 -2227 0
-1886 -2228 0
-1887 -2229 0
-1888 -2230 0
-1889 -2231 0
-1890 -2232 0
-1882 -2314 0
-1883 -2315 0
-1884 -2316 0
-1885 -2317 0
-1886 -2318 0
-1887 -2319 0
-1888 -2320 0
-1889 -2321 0
-1890 -2322 0
-1882 -2386 0
-1883 -2387 0
-1884 -2388 0
-1885 -2389 0
-1886 -2390 0
-1887 -2391 0
-1888 -2392 0
-1889 -2393 0
-1890 -2394 0
-1882 -2440 0
-1883 -2441 0
-1884 -2442 0
-1885 -2443 0
-1886 -2444 0
-1887 -2445 0
-1888 -2446 0
-1889 -2447 0
-1890 -2448 0
-1882 -2476 0
-1883 -2477 0
-1884 -2478 0
-1885 -2479 0
-1886 -2480 0
-1887 -2481 0
-1888 -2482 0
-1889 -2483 0
-1890 -2484 0
-1882 -2863 0
-1883 -2864 0
-1884 -2865 0
-1885 -2866 0
-1886 -2867 0
-1887 -2868 0
-1888 -2869 0
-1889 -2870 0
-1890 -2871 0
-1891 -1954 0
-1892 -1955 0
-1893 -1956 0
-1894 -1957 0
-1895 -1958 0
-1896 -1959 0
-1897 -1960 0
-1898 -1961 0
-1899 -1962 0
-1891 -2053 0
-1892 -2054 0
-1893 -2055 0
-1894 -2056 0
-1895 -2057 0
-1896 -2058 0
-1897 -2059 0
-1898 -2060 0
-1899 -2061 0
-1891 -2224 0
-1892 -2225 0
-1893 -2226 0
-1894 -2227 0
-1895 -2228 0
-1896 -2229 0
-1897 -2230 0
-1898 -2231 0
-1899 -2232 0
-1891 -2332 0
-1892 -2333 0
-1893 -2334 0
-1894 -2335 0
-1895 -2336 0
-1896 -2337 0
-1897 -2338 0
-1898 -2339 0
-1899 -2340 0
-1891 -2539 0
-1892 -2540 0
-1893 -2541 0
-1894 -2542 0
-1895 -2543 0
-1896 -2544 0
-1897 -2545 0
-1898 -2546 0
-1899 -2547 0
-1891 -2773 0
-1892 -2774 0
-1893 -2775 0
-1894 -2776 0
-1895 -2777 0
-1896 -2778 0
-1897 -2779 0
-1898 -2780 0
-1899 -2781 0
-1891 -2782 0
-1892 -2783 0
-1893 -2784 0
-1894 -2785 0
-1895 -2786 0
-1896 -2787 0
-1897 -2788 0
-1898 -2789 0
-1899 -2790 0
-1891 -2836 0
-1892 -2837 0
-1893 -2838 0
-1894 -2839 0
-1895 -2840 0
-1896 -2841 0
-1897 -2842 0
-1898 -2843 0
-1899 -2844 0
-1891 -2854 0
-1892 -2855 0
-1893 -2856 0
-1894 -2857 0
-1895 -2858 0
-1896 -2859 0
-1897 -2860 0
-1898 -2861 0
-1899 -2862 0
-1891 -2881 0
-1892 -2882 0
-1893 -2883 0
-1894 -2884 0
-1895 -2885 0
-1896 -2886 0
-1897 -2887 0
-1898 -2888 0
-1899 -2889 0
-1900 -1972 0
-1901 -1973 0
-1902 -1974 0
-1903 -1975 0
-1904 -1976 0
-1905 -1977 0
-1906 -1978 0
-1907 -1979 0
-1908 -1980 0
-1900 -1999 0
-1901 -2000 0
-1902 -2001 0
-1903 -2002 0
-1904 -2003 0
-1905 -2004 0
-1906 -2005 0
-1907 -2006 0
-1908 -2007 0
-1900 -2098 0
-1901 -2099 0
-1902 -2100 0
-1903 -2101 0
-1904 -2102 0
-1905 -2103 0
-1906 -2104 0
-1907 -2105 0
-1908 -2106 0
-1900 -2161 0
-1901 -2162 0
-1902 -2163 0
-1903 -2164 0
-1904 -2165 0
-1905 -2166 0
-1906 -2167 0
-1907 -2168 0
-1908 -2169 0
-1900 -2260 0
-1901 -2261 0
-1902 -2262 0
-1903 -2263 0
-1904 -2264 0
-1905 -2265 0
-1906 -2266 0
-1907 -2267 0
-1908 -2268 0
-1900 -2269 0
-1901 -2270 0
-1902 -2271 0
-1903 -2272 0
-1904 -2273 0
-1905 -2274 0
-1906 -2275 0
-1907 -2276 0
-1908 -2277 0
-1900 -2377 0
-1901 -2378 0
-1902 -2379 0
-1903 -2380 0
-1904 -2381 0
-1905 -2382 0
-1906 -2383 0
-1907 -2384 0
-1908 -2385 0
-1900 -2431 0
-1901 -2432 0
-1902 -2433 0
-1903 -2434 0
-1904 -2435 0
-1905 -2436 0
-1906 -2437 0
-1907 -2438 0
-1908 -2439 0
-1900 -2575 0
-1901 -2576 0
-1902 -2577 0
-1903 -2578 0
-1904 -2579 0
-1905 -2580 0
-1906 -2581 0
-1907 -2582 0
-1908 -2583 0
-1900 -2746 0
-1901 -2747 0
-1902 -2748 0
-1903 -2749 0
-1904 -2750 0
-1905 -2751 0
-1906 -2752 0
-1907 -2753 0
-1908 -2754 0
-1909 -1981 0
-1910 -1982 0
-1911 -1983 0
-1912 -1984 0
-1913 -1985 0
-1914 -1986 0
-1915 -1987 0
-1916 -1988 0
-1917 -1989 0
-1909 -2008 0
-1910 -2009 0
-1911 -2010 0
-1912 -2011 0
-1913 -2012 0
-1914 -2013 0
-1915 -2014 0
-1916 -2015 0
-1917 -2016 0
-1909 -2080 0
-1910 -2081 0
-1911 -2082 0
-1912 -2083 0
-1913 -2084 0
-1914 -2085 0
-1915 -2086 0
-1916 -2087 0
-1917 -2088 0
-1909 -2269 0
-1910 -2270 0
-1911 -2271 0
-1912 -2272 0
-1913 -2273 0
-1914 -2274 0
-1915 -2275 0
-1916 -2276 0
-1917 -2277 0
-1909 -2314 0
-1910 -2315 0
-1911 -2316 0
-1912 -2317 0
-1913 -2318 0
-1914 -2319 0
-1915 -2320 0
-1916 -2321 0
-1917 -2322 0
-1909 -2386 0
-1910 -2387 0
-1911 -2388 0
-1912 -2389 0
-1913 -2390 0
-1914 -2391 0
-1915 -2392 0
-1916 -2393 0
-1917 -2394 0
-1909 -2404 0
-1910 -2405 0
-1911 -2406 0
-1912 -2407 0
-1913 -2408 0
-1914 -2409 0
-1915 -2410 0
-1916 -2411 0
-1917 -2412 0
-1909 -2629 0
-1910 -2630 0
-1911 -2631 0
-1912 -2632 0
-1913 -2633 0
-1914 -2634 0
-1915 -2635 0
-1916 -2636 0
-1917 -2637 0
-1909 -2854 0
-1910 -2855 0
-1911 -2856 0
-1912 -2857 0
-1913 -2858 0
-1914 -2859 0
-1915 -2860 0
-1916 -2861 0
-1917 -2862 0
-1918 -1945 0
-1919 -1946 0
-1920 -1947 0
-1921 -1948 0
-1922 -1949 0
-1923 -1950 0
-1924 -1951 0
-1925 -1952 0
-1926 -1953 0
-1918 -1990 0
-1919 -1991 0
-1920 -1992 0
-1921 -1993 0
-1922 -1994 0
-1923 -1995 0
-1924 -1996 0
-1925 -1997 0
-1926 -1998 0
-1918 -2017 0
-1919 -2018 0
-1920 -2019 0
-1921 -2020 0
-1922 -2021 0
-1923 -2022 0
-1924 -2023 0
-1925 -2024 0
-1926 -2025 0
-1918 -2269 0
-1919 -2270 0
-1920 -2271 0
-1921 -2272 0
-1922 -2273 0
-1923 -2274 0
-1924 -2275 0
-1925 -2276 0
-1926 -2277 0
-1918 -2584 0
-1919 -2585 0
-1920 -2586 0
-1921 -2587 0
-1922 -2588 0
-1923 -2589 0
-1924 -2590 0
-1925 -2591 0
-1926 -2592 0
-1927 -2044 0
-1928 -2045 0
-1929 -2046 0
-1930 -2047 0
-1931 -2048 0
-1932 -2049 0
-1933 -2050 0
-1934 -2051 0
-1935 -2052 0
-1927 -2062 0
-1928 -2063 0
-1929 -2064 0
-1930 -2065 0
-1931 -2066 0
-1932 -2067 0
-1933 -2068 0
-1934 -2069 0
-1935 -2070 0
-1927 -2566 0
-1928 -2567 0
-1929 -2568 0
-1930 -2569 0
-1931 -2570 0
-1932 -2571 0
-1933 -2572 0
-1934 -2573 0
-1935 -2574 0
-1927 -2746 0
-1928 -2747 0
-1929 -2748 0
-1930 -2749 0
-1931 -2750 0
-1932 -2751 0
-1933 -2752 0
-1934 -2753 0
-1935 -2754 0
-1927 -2854 0
-1928 -2855 0
-1929 -2856 0
-1930 -2857 0
-1931 -2858 0
-1932 -2859 0
-1933 -2860 0
-1934 -2861 0
-1935 -2862 0
-1936 -2836 0
-1937 -2837 0
-1938 -2838 0
-1939 -2839 0
-1940 -2840 0
-1941 -2841 0
-1942 -2842 0
-1943 -2843 0
-1944 -2844 0
-1936 -2863 0
-1937 -2864 0
-1938 -2865 0
-1939 -2866 0
-1940 -2867 0
-1941 -2868 0
-1942 -2869 0
-1943 -2870 0
-1944 -2871 0
-1945 -1954 0
-1946 -1955 0
-1947 -1956 0
-1948 -1957 0
-1949 -1958 0
-1950 -1959 0
-1951 -1960 0
-1952 -1961 0
-1953 -1962 0
-1945 -1963 0
-1946 -1964 0
-1947 -1965 0
-1948 -1966 0
-1949 -1967 0
-1950 -1968 0
-1951 -1969 0
-1952 -1970 0
-1953 -1971 0
-1945 -2098 0
-1946 -2099 0
-1947 -2100 0
-1948 -2101 0
-1949 -2102 0
-1950 -2103 0
-1951 -2104 0
-1952 -2105 0
-1953 -2106 0
-1945 -2269 0
-1946 -2270 0
-1947 -2271 0
-1948 -2272 0
-1949 -2273 0
-1950 -2274 0
-1951 -2275 0
-1952 -2276 0
-1953 -2277 0
-1945 -2602 0
-1946 -2603 0
-1947 -2604 0
-1948 -2605 0
-1949 -2606 0
-1950 -2607 0
-1951 -2608 0
-1952 -2609 0
-1953 -2610 0
-1945 -2656 0
-1946 -2657 0
-1947 -2658 0
-1948 -2659 0
-1949 -2660 0
-1950 -2661 0
-1951 -2662 0
-1952 -2663 0
-1953 -2664 0
-1954 -2089 0
-1955 -2090 0
-1956 -2091 0
-1957 -2092 0
-1958 -2093 0
-1959 -2094 0
-1960 -2095 0
-1961 -2096 0
-1962 -2097 0
-1954 -2116 0
-1955 -2117 0
-1956 -2118 0
-1957 -2119 0
-1958 -2120 0
-1959 -2121 0
-1960 -2122 0
-1961 -2123 0
-1962 -2124 0
-1954 -2386 0
-1955 -2387 0
-1956 -2388 0
-1957 -2389 0
-1958 -2390 0
-1959 -2391 0
-1960 -2392 0
-1961 -2393 0
-1962 -2394 0
-1954 -2458 0
-1955 -2459 0
-1956 -2460 0
-1957 -2461 0
-1958 -2462 0
-1959 -2463 0
-1960 -2464 0
-1961 -2465 0
-1962 -2466 0
-1954 -2800 0
-1955 -2801 0
-1956 -2802 0
-1957 -2803 0
-1958 -2804 0
-1959 -2805 0
-1960 -2806 0
-1961 -2807 0
-1962 -2808 0
-1954 -2836 0
-1955 -2837 0
-1956 -2838 0
-1957 -2839 0
-1958 -2840 0
-1959 -2841 0
-1960 -2842 0
-1961 -2843 0
-1962 -2844 0
-1954 -2917 0
-1955 -2918 0
-1956 -2919 0
-1957 -2920 0
-1958 -2921 0
-1959 -2922 0
-1960 -2923 0
-1961 -2924 0
-1962 -2925 0
-1954 -2935 0
-1955 -2936 0
-1956 -2937 0
-1957 -2938 0
-1958 -2939 0
-1959 -2940 0
-1960 -2941 0
-1961 -2942 0
-1962 -2943 0
-1963 -2044 0
-1964 -2045 0
-1965 -2046 0
-1966 -2047 0
-1967 -2048 0
-1968 -2049 0
-1969 -2050 0
-1970 -2051 0
-1971 -2052 0
-1963 -2377 0
-1964 -2378 0
-1965 -2379 0
-1966 -2380 0
-1967 -2381 0
-1968 -2382 0
-1969 -2383 0
-1970 -2384 0
-1971 -2385 0
-1963 -2503 0
-1964 -2504 0
-1965 -2505 0
-1966 -2506 0
-1967 -2507 0
-1968 -2508 0
-1969 -2509 0
-1970 -2510 0
-1971 -2511 0
-1963 -2755 0
-1964 -2756 0
-1965 -2757 0
-1966 -2758 0
-1967 -2759 0
-1968 -2760 0
-1969 -2761 0
-1970 -2762 0
-1971 -2763 0
-1963 -2863 0
-1964 -2864 0
-1965 -2865 0
-1966 -2866 0
-1967 -2867 0
-1968 -2868 0
-1969 -2869 0
-1970 -2870 0
-1971 -2871 0
-1963 -2899 0
-1964 -2900 0
-1965 -2901 0
-1966 -2902 0
-1967 -2903 0
-1968 -2904 0
-1969 -2905 0
-1970 -2906 0
-1971 -2907 0
-1963 -2935 0
-1964 -2936 0
-1965 -2937 0
-1966 -2938 0
-1967 -2939 0
-1968 -2940 0
-1969 -2941 0
-1970 -2942 0
-1971 -2943 0
-1972 -2179 0
-1973 -2180 0
-1974 -2181 0
-1975 -2182 0
-1976 -2183 0
-1977 -2184 0
-1978 -2185 0
-1979 -2186 0
-1980 -2187 0
-1972 -2431 0
-1973 -2432 0
-1974 -2433 0
-1975 -2434 0
-1976 -2435 0
-1977 -2436 0
-1978 -2437 0
-1979 -2438 0
-1980 -2439 0
-1972 -2467 0
-1973 -2468 0
-1974 -2469 0
-1975 -2470 0
-1976 -2471 0
-1977 -2472 0
-1978 -2473 0
-1979 -2474 0
-1980 -2475 0
-1972 -2593 0
-1973 -2594 0
-1974 -2595 0
-1975 -2596 0
-1976 -2597 0
-1977 -2598 0
-1978 -2599 0
-1979 -2600 0
-1980 -2601 0
-1972 -2737 0
-1973 -2738 0
-1974 -2739 0
-1975 -2740 0
-1976 -2741 0
-1977 -2742 0
-1978 -2743 0
-1979 -2744 0
-1980 -2745 0
-1972 -2935 0
-1973 -2936 0
-1974 -2937 0
-1975 -2938 0
-1976 -2939 0
-1977 -2940 0
-1978 -2941 0
-1979 -2942 0
-1980 -2943 0
-1981 -2053 0
-1982 -2054 0
-1983 -2055 0
-1984 -2056 0
-1985 -2057 0
-1986 -2058 0
-1987 -2059 0
-1988 -2060 0
-1989 -2061 0
-1981 -2188 0
-1982 -2189 0
-1983 -2190 0
-1984 -2191 0
-1985 -2192 0
-1986 -2193 0
-1987 -2194 0
-1988 -2195 0
-1989 -2196 0
-1981 -2332 0
-1982 -2333 0
-1983 -2334 0
-1984 -2335 0
-1985 -2336 0
-1986 -2337 0
-1987 -2338 0
-1988 -2339 0
-1989 -2340 0
-1981 -2449 0
-1982 -2450 0
-1983 -2451 0
-1984 -2452 0
-1985 -2453 0
-1986 -2454 0
-1987 -2455 0
-1988 -2456 0
-1989 -2457 0
-1981 -2512 0
-1982 -2513 0
-1983 -2514 0
-1984 -2515 0
-1985 -2516 0
-1986 -2517 0
-1987 -2518 0
-1988 -2519 0
-1989 -2520 0
-1981 -2521 0
-1982 -2522 0
-1983 -2523 0
-1984 -2524 0
-1985 -2525 0
-1986 -2526 0
-1987 -2527 0
-1988 -2528 0
-1989 -2529 0
-1981 -2584 0
-1982 -2585 0
-1983 -2586 0
-1984 -2587 0
-1985 -2588 0
-1986 -2589 0
-1987 -2590 0
-1988 -2591 0
-1989 -2592 0
-1981 -2611 0
-1982 -2612 0
-1983 -2613 0
-1984 -2614 0
-1985 -2615 0
-1986 -2616 0
-1987 -2617 0
-1988 -2618 0
-1989 -2619 0
-1981 -2818 0
-1982 -2819 0
-1983 -2820 0
-1984 -2821 0
-1985 -2822 0
-1986 -2823 0
-1987 -2824 0
-1988 -2825 0
-1989 -2826 0
-1981 -2854 0
-1982 -2855 0
-1983 -2856 0
-1984 -2857 0
-1985 -2858 0
-1986 -2859 0
-1987 -2860 0
-1988 -2861 0
-1989 -2862 0
-1981 -2881 0
-1982 -2882 0
-1983 -2883 0
-1984 -2884 0
-1985 -2885 0
-1986 -2886 0
-1987 -2887 0
-1988 -2888 0
-1989 -2889 0
-1981 -2935 0
-1982 -2936 0
-1983 -2937 0
-1984 -2938 0
-1985 -2939 0
-1986 -2940 0
-1987 -2941 0
-1988 -2942 0
-1989 -2943 0
-1990 -2017 0
-1991 -2018 0
-1992 -2019 0
-1993 -2020 0
-1994 -2021 0
-1995 -2022 0
-1996 -2023 0
-1997 -2024 0
-1998 -2025 0
-1990 -2035 0
-1991 -2036 0
-1992 -2037 0
-1993 -2038 0
-1994 -2039 0
-1995 -2040 0
-1996 -2041 0
-1997 -2042 0
-1998 -2043 0
-1990 -2305 0
-1991 -2306 0
-1992 -2307 0
-1993 -2308 0
-1994 -2309 0
-1995 -2310 0
-1996 -2311 0
-1997 -2312 0
-1998 -2313 0
-1990 -2323 0
-1991 -2324 0
-1992 -2325 0
-1993 -2326 0
-1994 -2327 0
-1995 -2328 0
-1996 -2329 0
-1997 -2330 0
-1998 -2331 0
-1990 -2395 0
-1991 -2396 0
-1992 -2397 0
-1993 -2398 0
-1994 -2399 0
-1995 -2400 0
-1996 -2401 0
-1997 -2402 0
-1998 -2403 0
-1990 -2557 0
-1991 -2558 0
-1992 -2559 0
-1993 -2560 0
-1994 -2561 0
-1995 -2562 0
-1996 -2563 0
-1997 -2564 0
-1998 -2565 0
-1990 -2602 0
-1991 -2603 0
-1992 -2604 0
-1993 -2605 0
-1994 -2606 0
-1995 -2607 0
-1996 -2608 0
-1997 -2609 0
-1998 -2610 0
-1990 -2755 0
-1991 -2756 0
-1992 -2757 0
-1993 -2758 0
-1994 -2759 0
-1995 -2760 0
-1996 -2761 0
-1997 -2762 0
-1998 -2763 0
-1990 -2809 0
-1991 -2810 0
-1992 -2811 0
-1993 -2812 0
-1994 -2813 0
-1995 -2814 0
-1996 -2815 0
-1997 -2816 0
-1998 -2817 0
-1990 -2935 0
-1991 -2936 0
-1992 -2937 0
-1993 -2938 0
-1994 -2939 0
-1995 -2940 0
-1996 -2941 0
-1997 -2942 0
-1998 -2943 0
-1999 -2044 0
-2000 -2045 0
-2001 -2046 0
-2002 -2047 0
-2003 -2048 0
-2004 -2049 0
-2005 -2050 0
-2006 -2051 0
-2007 -2052 0
-1999 -2224 0
-2000 -2225 0
-2001 -2226 0
-2002 -2227 0
-2003 -2228 0
-2004 -2229 0
-2005 -2230 0
-2006 -2231 0
-2007 -2232 0
-1999 -2350 0
-2000 -2351 0
-2001 -2352 0
-2002 -2353 0
-2003 -2354 0
-2004 -2355 0
-2005 -2356 0
-2006 -2357 0
-2007 -2358 0
-1999 -2449 0
-2000 -2450 0
-2001 -2451 0
-2002 -2452 0
-2003 -2453 0
-2004 -2454 0
-2005 -2455 0
-2006 -2456 0
-2007 -2457 0
-1999 -2476 0
-2000 -2477 0
-2001 -2478 0
-2002 -2479 0
-2003 -2480 0
-2004 -2481 0
-2005 -2482 0
-2006 -2483 0
-2007 -2484 0
-1999 -2521 0
-2000 -2522 0
-2001 -2523 0
-2002 -2524 0
-2003 -2525 0
-2004 -2526 0
-2005 -2527 0
-2006 -2528 0
-2007 -2529 0
-1999 -2539 0
-2000 -2540 0
-2001 -2541 0
-2002 -2542 0
-2003 -2543 0
-2004 -2544 0
-2005 -2545 0
-2006 -2546 0
-2007 -2547 0
-1999 -2584 0
-2000 -2585 0
-2001 -2586 0
-2002 -2587 0
-2003 -2588 0
-2004 -2589 0
-2005 -2590 0
-2006 -2591 0
-2007 -2592 0
-1999 -2737 0
-2000 -2738 0
-2001 -2739 0
-2002 -2740 0
-2003 -2741 0
-2004 -2742 0
-2005 -2743 0
-2006 -2744 0
-2007 -2745 0
-1999 -2746 0
-2000 -2747 0
-2001 -2748 0
-2002 -2749 0
-2003 -2750 0
-2004 -2751 0
-2005 -2752 0
-2006 -2753 0
-2007 -2754 0
-1999 -2782 0
-2000 -2783 0
-2001 -2784 0
-2002 -2785 0
-2003 -2786 0
-2004 -2787 0
-2005 -2788 0
-2006 -2789 0
-2007 -2790 0
-1999 -2935 0
-2000 -2936 0
-2001 -2937 0
-2002 -2938 0
-2003 -2939 0
-2004 -2940 0
-2005 -2941 0
-2006 -2942 0
-2007 -2943 0
-2008 -2053 0
-2009 -2054 0
-2010 -2055 0
-2011 -2056 0
-2012 -2057 0
-2013 -2058 0
-2014 -2059 0
-2015 -2060 0
-2016 -2061 0
-2008 -2224 0
-2009 -2225 0
-2010 -2226 0
-2011 -2227 0
-2012 -2228 0
-2013 -2229 0
-2014 -2230 0
-2015 -2231 0
-2016 -2232 0
-2008 -2314 0
-2009 -2315 0
-2010 -2316 0
-2011 -2317 0
-2012 -2318 0
-2013 -2319 0
-2014 -2320 0
-2015 -2321 0
-2016 -2322 0
-2008 -2467 0
-2009 -2468 0
-2010 -2469 0
-2011 -2470 0
-2012 -2471 0
-2013 -2472 0
-2014 -2473 0
-2015 -2474 0
-2016 -2475 0
-2008 -2665 0
-2009 -2666 0
-2010 -2667 0
-2011 -2668 0
-2012 -2669 0
-2013 -2670 0
-2014 -2671 0
-2015 -2672 0
-2016 -2673 0
-2008 -2881 0
-2009 -2882 0
-2010 -2883 0
-2011 -2884 0
-2012 -2885 0
-2013 -2886 0
-2014 -2887 0
-2015 -2888 0
-2016 -2889 0
-2008 -2935 0
-2009 -2936 0
-2010 -2937 0
-2011 -2938 0
-2012 -2939 0
-2013 -2940 0
-2014 -2941 0
-2015 -2942 0
-2016 -2943 0
-2017 -2026 0
-2018 -2027 0
-2019 -2028 0
-2020 -2029 0
-2021 -2030 0
-2022 -2031 0
-2023 -2032 0
-2024 -2033 0
-2025 -2034 0
-2017 -2098 0
-2018 -2099 0
-2019 -2100 0
-2020 -2101 0
-2021 -2102 0
-2022 -2103 0
-2023 -2104 0
-2024 -2105 0
-2025 -2106 0
-2017 -2107 0
-2018 -2108 0
-2019 -2109 0
-2020 -2110 0
-2021 -2111 0
-2022 -2112 0
-2023 -2113 0
-2024 -2114 0
-2025 -2115 0
-2017 -2206 0
-2018 -2207 0
-2019 -2208 0
-2020 -2209 0
-2021 -2210 0
-2022 -2211 0
-2023 -2212 0
-2024 -2213 0
-2025 -2214 0
-2017 -2215 0
-2018 -2216 0
-2019 -2217 0
-2020 -2218 0
-2021 -2219 0
-2022 -2220 0
-2023 -2221 0
-2024 -2222 0
-2025 -2223 0
-2017 -2224 0
-2018 -2225 0
-2019 -2226 0
-2020 -2227 0
-2021 -2228 0
-2022 -2229 0
-2023 -2230 0
-2024 -2231 0
-2025 -2232 0
-2017 -2287 0
-2018 -2288 0
-2019 -2289 0
-2020 -2290 0
-2021 -2291 0
-2022 -2292 0
-2023 -2293 0
-2024 -2294 0
-2025 -2295 0
-2017 -2422 0
-2018 -2423 0
-2019 -2424 0
-2020 -2425 0
-2021 -2426 0
-2022 -2427 0
-2023 -2428 0
-2024 -2429 0
-2025 -2430 0
-2017 -2440 0
-2018 -2441 0
-2019 -2442 0
-2020 -2443 0
-2021 -2444 0
-2022 -2445 0
-2023 -2446 0
-2024 -2447 0
-2025 -2448 0
-2017 -2557 0
-2018 -2558 0
-2019 -2559 0
-2020 -2560 0
-2021 -2561 0
-2022 -2562 0
-2023 -2563 0
-2024 -2564 0
-2025 -2565 0
-2017 -2656 0
-2018 -2657 0
-2019 -2658 0
-2020 -2659 0
-2021 -2660 0
-2022 -2661 0
-2023 -2662 0
-2024 -2663 0
-2025 -2664 0
-2017 -2827 0
-2018 -2828 0
-2019 -2829 0
-2020 -2830 0
-2021 -2831 0
-2022 -2832 0
-2023 -2833 0
-2024 -2834 0
-2025 -2835 0
-2017 -2836 0
-2018 -2837 0
-2019 -2838 0
-2020 -2839 0
-2021 -2840 0
-2022 -2841 0
-2023 -2842 0
-2024 -2843 0
-2025 -2844 0
-2017 -2935 0
-2018 -2936 0
-2019 -2937 0
-2020 -2938 0
-2021 -2939 0
-2022 -2940 0
-2023 -2941 0
-2024 -2942 0
-2025 -2943 0
-2026 -2485 0
-2027 -2486 0
-2028 -2487 0
-2029 -2488 0
-2030 -2489 0
-2031 -2490 0
-2032 -2491 0
-2033 -2492 0
-2034 -2493 0
-2026 -2755 0
-2027 -2756 0
-2028 -2757 0
-2029 -2758 0
-2030 -2759 0
-2031 -2760 0
-2032 -2761 0
-2033 -2762 0
-2034 -2763 0
-2035 -2485 0
-2036 -2486 0
-2037 -2487 0
-2038 -2488 0
-2039 -2489 0
-2040 -2490 0
-2041 -2491 0
-2042 -2492 0
-2043 -2493 0
-2035 -2836 0
-2036 -2837 0
-2037 -2838 0
-2038 -2839 0
-2039 -2840 0
-2040 -2841 0
-2041 -2842 0
-2042 -2843 0
-2043 -2844 0
-2044 -2071 0
-2045 -2072 0
-2046 -2073 0
-2047 -2074 0
-2048 -2075 0
-2049 -2076 0
-2050 -2077 0
-2051 -2078 0
-2052 -2079 0
-2044 -2107 0
-2045 -2108 0
-2046 -2109 0
-2047 -2110 0
-2048 -2111 0
-2049 -2112 0
-2050 -2113 0
-2051 -2114 0
-2052 -2115 0
-2044 -2161 0
-2045 -2162 0
-2046 -2163 0
-2047 -2164 0
-2048 -2165 0
-2049 -2166 0
-2050 -2167 0
-2051 -2168 0
-2052 -2169 0
-2044 -2260 0
-2045 -2261 0
-2046 -2262 0
-2047 -2263 0
-2048 -2264 0
-2049 -2265 0
-2050 -2266 0
-2051 -2267 0
-2052 -2268 0
-2044 -2575 0
-2045 -2576 0
-2046 -2577 0
-2047 -2578 0
-2048 -2579 0
-2049 -2580 0
-2050 -2581 0
-2051 -2582 0
-2052 -2583 0
-2053 -2062 0
-2054 -2063 0
-2055 -2064 0
-2056 -2065 0
-2057 -2066 0
-2058 -2067 0
-2059 -2068 0
-2060 -2069 0
-2061 -2070 0
-2053 -2089 0
-2054 -2090 0
-2055 -2091 0
-2056 -2092 0
-2057 -2093 0
-2058 -2094 0
-2059 -2095 0
-2060 -2096 0
-2061 -2097 0
-2053 -2170 0
-2054 -2171 0
-2055 -2172 0
-2056 -2173 0
-2057 -2174 0
-2058 -2175 0
-2059 -2176 0
-2060 -2177 0
-2061 -2178 0
-2053 -2287 0
-2054 -2288 0
-2055 -2289 0
-2056 -2290 0
-2057 -2291 0
-2058 -2292 0
-2059 -2293 0
-2060 -2294 0
-2061 -2295 0
-2053 -2584 0
-2054 -2585 0
-2055 -2586 0
-2056 -2587 0
-2057 -2588 0
-2058 -2589 0
-2059 -2590 0
-2060 -2591 0
-2061 -2592 0
-2062 -2152 0
-2063 -2153 0
-2064 -2154 0
-2065 -2155 0
-2066 -2156 0
-2067 -2157 0
-2068 -2158 0
-2069 -2159 0
-2070 -2160 0
-2062 -2665 0
-2063 -2666 0
-2064 -2667 0
-2065 -2668 0
-2066 -2669 0
-2067 -2670 0
-2068 -2671 0
-2069 -2672 0
-2070 -2673 0
-2071 -2152 0
-2072 -2153 0
-2073 -2154 0
-2074 -2155 0
-2075 -2156 0
-2076 -2157 0
-2077 -2158 0
-2078 -2159 0
-2079 -2160 0
-2071 -2647 0
-2072 -2648 0
-2073 -2649 0
-2074 -2650 0
-2075 -2651 0
-2076 -2652 0
-2077 -2653 0
-2078 -2654 0
-2079 -2655 0
-2080 -2206 0
-2081 -2207 0
-2082 -2208 0
-2083 -2209 0
-2084 -2210 0
-2085 -2211 0
-2086 -2212 0
-2087 -2213 0
-2088 -2214 0
-2080 -2314 0
-2081 -2315 0
-2082 -2316 0
-2083 -2317 0
-2084 -2318 0
-2085 -2319 0
-2086 -2320 0
-2087 -2321 0
-2088 -2322 0
-2080 -2368 0
-2081 -2369 0
-2082 -2370 0
-2083 -2371 0
-2084 -2372 0
-2085 -2373 0
-2086 -2374 0
-2087 -2375 0
-2088 -2376 0
-2080 -2422 0
-2081 -2423 0
-2082 -2424 0
-2083 -2425 0
-2084 -2426 0
-2085 -2427 0
-2086 -2428 0
-2087 -2429 0
-2088 -2430 0
-2080 -2512 0
-2081 -2513 0
-2082 -2514 0
-2083 -2515 0
-2084 -2516 0
-2085 -2517 0
-2086 -2518 0
-2087 -2519 0
-2088 -2520 0
-2080 -2818 0
-2081 -2819 0
-2082 -2820 0
-2083 -2821 0
-2084 -2822 0
-2085 -2823 0
-2086 -2824 0
-2087 -2825 0
-2088 -2826 0
-2089 -2170 0
-2090 -2171 0
-2091 -2172 0
-2092 -2173 0
-2093 -2174 0
-2094 -2175 0
-2095 -2176 0
-2096 -2177 0
-2097 -2178 0
-2089 -2287 0
-2090 -2288 0
-2091 -2289 0
-2092 -2290 0
-2093 -2291 0
-2094 -2292 0
-2095 -2293 0
-2096 -2294 0
-2097 -2295 0
-2089 -2557 0
-2090 -2558 0
-2091 -2559 0
-2092 -2560 0
-2093 -2561 0
-2094 -2562 0
-2095 -2563 0
-2096 -2564 0
-2097 -2565 0
-2089 -2764 0
-2090 -2765 0
-2091 -2766 0
-2092 -2767 0
-2093 -2768 0
-2094 -2769 0
-2095 -2770 0
-2096 -2771 0
-2097 -2772 0
-2089 -2773 0
-2090 -2774 0
-2091 -2775 0
-2092 -2776 0
-2093 -2777 0
-2094 -2778 0
-2095 -2779 0
-2096 -2780 0
-2097 -2781 0
-2089 -2782 0
-2090 -2783 0
-2091 -2784 0
-2092 -2785 0
-2093 -2786 0
-2094 -2787 0
-2095 -2788 0
-2096 -2789 0
-2097 -2790 0
-2089 -2800 0
-2090 -2801 0
-2091 -2802 0
-2092 -2803 0
-2093 -2804 0
-2094 -2805 0
-2095 -2806 0
-2096 -2807 0
-2097 -2808 0
-2089 -2809 0
-2090 -2810 0
-2091 -2811 0
-2092 -2812 0
-2093 -2813 0
-2094 -2814 0
-2095 -2815 0
-2096 -2816 0
-2097 -2817 0
-2098 -2179 0
-2099 -2180 0
-2100 -2181 0
-2101 -2182 0
-2102 -2183 0
-2103 -2184 0
-2104 -2185 0
-2105 -2186 0
-2106 -2187 0
-2098 -2323 0
-2099 -2324 0
-2100 -2325 0
-2101 -2326 0
-2102 -2327 0
-2103 -2328 0
-2104 -2329 0
-2105 -2330 0
-2106 -2331 0
-2098 -2377 0
-2099 -2378 0
-2100 -2379 0
-2101 -2380 0
-2102 -2381 0
-2103 -2382 0
-2104 -2383 0
-2105 -2384 0
-2106 -2385 0
-2098 -2440 0
-2099 -2441 0
-2100 -2442 0
-2101 -2443 0
-2102 -2444 0
-2103 -2445 0
-2104 -2446 0
-2105 -2447 0
-2106 -2448 0
-2098 -2467 0
-2099 -2468 0
-2100 -2469 0
-2101 -2470 0
-2102 -2471 0
-2103 -2472 0
-2104 -2473 0
-2105 -2474 0
-2106 -2475 0
-2098 -2836 0
-2099 -2837 0
-2100 -2838 0
-2101 -2839 0
-2102 -2840 0
-2103 -2841 0
-2104 -2842 0
-2105 -2843 0
-2106 -2844 0
-2107 -2161 0
-2108 -2162 0
-2109 -2163 0
-2110 -2164 0
-2111 -2165 0
-2112 -2166 0
-2113 -2167 0
-2114 -2168 0
-2115 -2169 0
-2107 -2260 0
-2108 -2261 0
-2109 -2262 0
-2110 -2263 0
-2111 -2264 0
-2112 -2265 0
-2113 -2266 0
-2114 -2267 0
-2115 -2268 0
-2107 -2539 0
-2108 -2540 0
-2109 -2541 0
-2110 -2542 0
-2111 -2543 0
-2112 -2544 0
-2113 -2545 0
-2114 -2546 0
-2115 -2547 0
-2107 -2746 0
-2108 -2747 0
-2109 -2748 0
-2110 -2749 0
-2111 -2750 0
-2112 -2751 0
-2113 -2752 0
-2114 -2753 0
-2115 -2754 0
-2107 -2755 0
-2108 -2756 0
-2109 -2757 0
-2110 -2758 0
-2111 -2759 0
-2112 -2760 0
-2113 -2761 0
-2114 -2762 0
-2115 -2763 0
-2107 -2827 0
-2108 -2828 0
-2109 -2829 0
-2110 -2830 0
-2111 -2831 0
-2112 -2832 0
-2113 -2833 0
-2114 -2834 0
-2115 -2835 0
-2107 -2863 0
-2108 -2864 0
-2109 -2865 0
-2110 -2866 0
-2111 -2867 0
-2112 -2868 0
-2113 -2869 0
-2114 -2870 0
-2115 -2871 0
-2107 -2890 0
-2108 -2891 0
-2109 -2892 0
-2110 -2893 0
-2111 -2894 0
-2112 -2895 0
-2113 -2896 0
-2114 -2897 0
-2115 -2898 0
-2116 -2188 0
-2117 -2189 0
-2118 -2190 0
-2119 -2191 0
-2120 -2192 0
-2121 -2193 0
-2122 -2194 0
-2123 -2195 0
-2124 -2196 0
-2116 -2206 0
-2117 -2207 0
-2118 -2208 0
-2119 -2209 0
-2120 -2210 0
-2121 -2211 0
-2122 -2212 0
-2123 -2213 0
-2124 -2214 0
-2116 -2314 0
-2117 -2315 0
-2118 -2316 0
-2119 -2317 0
-2120 -2318 0
-2121 -2319 0
-2122 -2320 0
-2123 -2321 0
-2124 -2322 0
-2116 -2332 0
-2117 -2333 0
-2118 -2334 0
-2119 -2335 0
-2120 -2336 0
-2121 -2337 0
-2122 -2338 0
-2123 -2339 0
-2124 -2340 0
-2116 -2341 0
-2117 -2342 0
-2118 -2343 0
-2119 -2344 0
-2120 -2345 0
-2121 -2346 0
-2122 -2347 0
-2123 -2348 0
-2124 -2349 0
-2116 -2422 0
-2117 -2423 0
-2118 -2424 0
-2119 -2425 0
-2120 -2426 0
-2121 -2427 0
-2122 -2428 0
-2123 -2429 0
-2124 -2430 0
-2116 -2575 0
-2117 -2576 0
-2118 -2577 0
-2119 -2578 0
-2120 -2579 0
-2121 -2580 0
-2122 -2581 0
-2123 -2582 0
-2124 -2583 0
-2116 -2773 0
-2117 -2774 0
-2118 -2775 0
-2119 -2776 0
-2120 -2777 0
-2121 -2778 0
-2122 -2779 0
-2123 -2780 0
-2124 -2781 0
-2125 -2179 0
-2126 -2180 0
-2127 -2181 0
-2128 -2182 0
-2129 -2183 0
-2130 -2184 0
-2131 -2185 0
-2132 -2186 0
-2133 -2187 0
-2125 -2215 0
-2126 -2216 0
-2127 -2217 0
-2128 -2218 0
-2129 -2219 0
-2130 -2220 0
-2131 -2221 0
-2132 -2222 0
-2133 -2223 0
-2125 -2323 0
-2126 -2324 0
-2127 -2325 0
-2128 -2326 0
-2129 -2327 0
-2130 -2328 0
-2131 -2329 0
-2132 -2330 0
-2133 -2331 0
-2125 -2341 0
-2126 -2342 0
-2127 -2343 0
-2128 -2344 0
-2129 -2345 0
-2130 -2346 0
-2131 -2347 0
-2132 -2348 0
-2133 -2349 0
-2125 -2377 0
-2126 -2378 0
-2127 -2379 0
-2128 -2380 0
-2129 -2381 0
-2130 -2382 0
-2131 -2383 0
-2132 -2384 0
-2133 -2385 0
-2125 -2395 0
-2126 -2396 0
-2127 -2397 0
-2128 -2398 0
-2129 -2399 0
-2130 -2400 0
-2131 -2401 0
-2132 -2402 0
-2133 -2403 0
-2125 -2584 0
-2126 -2585 0
-2127 -2586 0
-2128 -2587 0
-2129 -2588 0
-2130 -2589 0
-2131 -2590 0
-2132 -2591 0
-2133 -2592 0
-2125 -2827 0
-2126 -2828 0
-2127 -2829 0
-2128 -2830 0
-2129 -2831 0
-2130 -2832 0
-2131 -2833 0
-2132 -2834 0
-2133 -2835 0
-2134 -2152 0
-2135 -2153 0
-2136 -2154 0
-2137 -2155 0
-2138 -2156 0
-2139 -2157 0
-2140 -2158 0
-2141 -2159 0
-2142 -2160 0
-2134 -2197 0
-2135 -2198 0
-2136 -2199 0
-2137 -2200 0
-2138 -2201 0
-2139 -2202 0
-2140 -2203 0
-2141 -2204 0
-2142 -2205 0
-2134 -2224 0
-2135 -2225 0
-2136 -2226 0
-2137 -2227 0
-2138 -2228 0
-2139 -2229 0
-2140 -2230 0
-2141 -2231 0
-2142 -2232 0
-2134 -2341 0
-2135 -2342 0
-2136 -2343 0
-2137 -2344 0
-2138 -2345 0
-2139 -2346 0
-2140 -2347 0
-2141 -2348 0
-2142 -2349 0
-2134 -2629 0
-2135 -2630 0
-2136 -2631 0
-2137 -2632 0
-2138 -2633 0
-2139 -2634 0
-2140 -2635 0
-2141 -2636 0
-2142 -2637 0
-2143 -2620 0
-2144 -2621 0
-2145 -2622 0
-2146 -2623 0
-2147 -2624 0
-2148 -2625 0
-2149 -2626 0
-2150 -2627 0
-2151 -2628 0
-2143 -2773 0
-2144 -2774 0
-2145 -2775 0
-2146 -2776 0
-2147 -2777 0
-2148 -2778 0
-2149 -2779 0
-2150 -2780 0
-2151 -2781 0
-2143 -2827 0
-2144 -2828 0
-2145 -2829 0
-2146 -2830 0
-2147 -2831 0
-2148 -2832 0
-2149 -2833 0
-2150 -2834 0
-2151 -2835 0
-2152 -2161 0
-2153 -2162 0
-2154 -2163 0
-2155 -2164 0
-2156 -2165 0
-2157 -2166 0
-2158 -2167 0
-2159 -2168 0
-2160 -2169 0
-2152 -2170 0
-2153 -2171 0
-2154 -2172 0
-2155 -2173 0
-2156 -2174 0
-2157 -2175 0
-2158 -2176 0
-2159 -2177 0
-2160 -2178 0
-2152 -2341 0
-2153 -2342 0
-2154 -2343 0
-2155 -2344 0
-2156 -2345 0
-2157 -2346 0
-2158 -2347 0
-2159 -2348 0
-2160 -2349 0
-2152 -2647 0
-2153 -2648 0
-2154 -2649 0
-2155 -2650 0
-2156 -2651 0
-2157 -2652 0
-2158 -2653 0
-2159 -2654 0
-2160 -2655 0
-2152 -2665 0
-2153 -2666 0
-2154 -2667 0
-2155 -2668 0
-2156 -2669 0
-2157 -2670 0
-2158 -2671 0
-2159 -2672 0
-2160 -2673 0
-2161 -2323 0
-2162 -2324 0
-2163 -2325 0
-2164 -2326 0
-2165 -2327 0
-2166 -2328 0
-2167 -2329 0
-2168 -2330 0
-2169 -2331 0
-2161 -2449 0
-2162 -2450 0
-2163 -2451 0
-2164 -2452 0
-2165 -2453 0
-2166 -2454 0
-2167 -2455 0
-2168 -2456 0
-2169 -2457 0
-2161 -2818 0
-2162 -2819 0
-2163 -2820 0
-2164 -2821 0
-2165 -2822 0
-2166 -2823 0
-2167 -2824 0
-2168 -2825 0
-2169 -2826 0
-2161 -2863 0
-2162 -2864 0
-2163 -2865 0
-2164 -2866 0
-2165 -2867 0
-2166 -2868 0
-2167 -2869 0
-2168 -2870 0
-2169 -2871 0
-2161 -2917 0
-2162 -2918 0
-2163 -2919 0
-2164 -2920 0
-2165 -2921 0
-2166 -2922 0
-2167 -2923 0
-2168 -2924 0
-2169 -2925 0
-2161 -2944 0
-2162 -2945 0
-2163 -2946 0
-2164 -2947 0
-2165 -2948 0
-2166 -2949 0
-2167 -2950 0
-2168 -2951 0
-2169 -2952 0
-2170 -2314 0
-2171 -2315 0
-2172 -2316 0
-2173 -2317 0
-2174 -2318 0
-2175 -2319 0
-2176 -2320 0
-2177 -2321 0
-2178 -2322 0
-2170 -2503 0
-2171 -2504 0
-2172 -2505 0
-2173 -2506 0
-2174 -2507 0
-2175 -2508 0
-2176 -2509 0
-2177 -2510 0
-2178 -2511 0
-2170 -2782 0
-2171 -2783 0
-2172 -2784 0
-2173 -2785 0
-2174 -2786 0
-2175 -2787 0
-2176 -2788 0
-2177 -2789 0
-2178 -2790 0
-2170 -2836 0
-2171 -2837 0
-2172 -2838 0
-2173 -2839 0
-2174 -2840 0
-2175 -2841 0
-2176 -2842 0
-2177 -2843 0
-2178 -2844 0
-2170 -2908 0
-2171 -2909 0
-2172 -2910 0
-2173 -2911 0
-2174 -2912 0
-2175 -2913 0
-2176 -2914 0
-2177 -2915 0
-2178 -2916 0
-2170 -2944 0
-2171 -2945 0
-2172 -2946 0
-2173 -2947 0
-2174 -2948 0
-2175 -2949 0
-2176 -2950 0
-2177 -2951 0
-2178 -2952 0
-2179 -2260 0
-2180 -2261 0
-2181 -2262 0
-2182 -2263 0
-2183 -2264 0
-2184 -2265 0
-2185 -2266 0
-2186 -2267 0
-2187 -2268 0
-2179 -2458 0
-2180 -2459 0
-2181 -2460 0
-2182 -2461 0
-2183 -2462 0
-2184 -2463 0
-2185 -2464 0
-2186 -2465 0
-2187 -2466 0
-2179 -2512 0
-2180 -2513 0
-2181 -2514 0
-2182 -2515 0
-2183 -2516 0
-2184 -2517 0
-2185 -2518 0
-2186 -2519 0
-2187 -2520 0
-2179 -2530 0
-2180 -2531 0
-2181 -2532 0
-2182 -2533 0
-2183 -2534 0
-2184 -2535 0
-2185 -2536 0
-2186 -2537 0
-2187 -2538 0
-2179 -2557 0
-2180 -2558 0
-2181 -2559 0
-2182 -2560 0
-2183 -2561 0
-2184 -2562 0
-2185 -2563 0
-2186 -2564 0
-2187 -2565 0
-2179 -2629 0
-2180 -2630 0
-2181 -2631 0
-2182 -2632 0
-2183 -2633 0
-2184 -2634 0
-2185 -2635 0
-2186 -2636 0
-2187 -2637 0
-2179 -2800 0
-2180 -2801 0
-2181 -2802 0
-2182 -2803 0
-2183 -2804 0
-2184 -2805 0
-2185 -2806 0
-2186 -2807 0
-2187 -2808 0
-2179 -2827 0
-2180 -2828 0
-2181 -2829 0
-2182 -2830 0
-2183 -2831 0
-2184 -2832 0
-2185 -2833 0
-2186 -2834 0
-2187 -2835 0
-2179 -2890 0
-2180 -2891 0
-2181 -2892 0
-2182 -2893 0
-2183 -2894 0
-2184 -2895 0
-2185 -2896 0
-2186 -2897 0
-2187 -2898 0
-2179 -2944 0
-2180 -2945 0
-2181 -2946 0
-2182 -2947 0
-2183 -2948 0
-2184 -2949 0
-2185 -2950 0
-2186 -2951 0
-2187 -2952 0
-2188 -2422 0
-2189 -2423 0
-2190 -2424 0
-2191 -2425 0
-2192 -2426 0
-2193 -2427 0
-2194 -2428 0
-2195 -2429 0
-2196 -2430 0
-2188 -2476 0
-2189 -2477 0
-2190 -2478 0
-2191 -2479 0
-2192 -2480 0
-2193 -2481 0
-2194 -2482 0
-2195 -2483 0
-2196 -2484 0
-2188 -2638 0
-2189 -2639 0
-2190 -2640 0
-2191 -2641 0
-2192 -2642 0
-2193 -2643 0
-2194 -2644 0
-2195 -2645 0
-2196 -2646 0
-2188 -2764 0
-2189 -2765 0
-2190 -2766 0
-2191 -2767 0
-2192 -2768 0
-2193 -2769 0
-2194 -2770 0
-2195 -2771 0
-2196 -2772 0
-2188 -2944 0
-2189 -2945 0
-2190 -2946 0
-2191 -2947 0
-2192 -2948 0
-2193 -2949 0
-2194 -2950 0
-2195 -2951 0
-2196 -2952 0
-2197 -2224 0
-2198 -2225 0
-2199 -2226 0
-2200 -2227 0
-2201 -2228 0
-2202 -2229 0
-2203 -2230 0
-2204 -2231 0
-2205 -2232 0
-2197 -2242 0
-2198 -2243 0
-2199 -2244 0
-2200 -2245 0
-2201 -2246 0
-2202 -2247 0
-2203 -2248 0
-2204 -2249 0
-2205 -2250 0
-2197 -2368 0
-2198 -2369 0
-2199 -2370 0
-2200 -2371 0
-2201 -2372 0
-2202 -2373 0
-2203 -2374 0
-2204 -2375 0
-2205 -2376 0
-2197 -2386 0
-2198 -2387 0
-2199 -2388 0
-2200 -2389 0
-2201 -2390 0
-2202 -2391 0
-2203 -2392 0
-2204 -2393 0
-2205 -2394 0
-2197 -2404 0
-2198 -2405 0
-2199 -2406 0
-2200 -2407 0
-2201 -2408 0
-2202 -2409 0
-2203 -2410 0
-2204 -2411 0
-2205 -2412 0
-2197 -2611 0
-2198 -2612 0
-2199 -2613 0
-2200 -2614 0
-2201 -2615 0
-2202 -2616 0
-2203 -2617 0
-2204 -2618 0
-2205 -2619 0
-2197 -2647 0
-2198 -2648 0
-2199 -2649 0
-2200 -2650 0
-2201 -2651 0
-2202 -2652 0
-2203 -2653 0
-2204 -2654 0
-2205 -2655 0
-2197 -2782 0
-2198 -2783 0
-2199 -2784 0
-2200 -2785 0
-2201 -2786 0
-2202 -2787 0
-2203 -2788 0
-2204 -2789 0
-2205 -2790 0
-2197 -2872 0
-2198 -2873 0
-2199 -2874 0
-2200 -2875 0
-2201 -2876 0
-2202 -2877 0
-2203 -2878 0
-2204 -2879 0
-2205 -2880 0
-2197 -2944 0
-2198 -2945 0
-2199 -2946 0
-2200 -2947 0
-2201 -2948 0
-2202 -2949 0
-2203 -2950 0
-2204 -2951 0
-2205 -2952 0
-2206 -2287 0
-2207 -2288 0
-2208 -2289 0
-2209 -2290 0
-2210 -2291 0
-2211 -2292 0
-2212 -2293 0
-2213 -2294 0
-2214 -2295 0
-2206 -2458 0
-2207 -2459 0
-2208 -2460 0
-2209 -2461 0
-2210 -2462 0
-2211 -2463 0
-2212 -2464 0
-2213 -2465 0
-2214 -2466 0
-2206 -2467 0
-2207 -2468 0
-2208 -2469 0
-2209 -2470 0
-2210 -2471 0
-2211 -2472 0
-2212 -2473 0
-2213 -2474 0
-2214 -2475 0
-2206 -2530 0
-2207 -2531 0
-2208 -2532 0
-2209 -2533 0
-2210 -2534 0
-2211 -2535 0
-2212 -2536 0
-2213 -2537 0
-2214 -2538 0
-2206 -2539 0
-2207 -2540 0
-2208 -2541 0
-2209 -2542 0
-2210 -2543 0
-2211 -2544 0
-2212 -2545 0
-2213 -2546 0
-2214 -2547 0
-2206 -2629 0
-2207 -2630 0
-2208 -2631 0
-2209 -2632 0
-2210 -2633 0
-2211 -2634 0
-2212 -2635 0
-2213 -2636 0
-2214 -2637 0
-2206 -2755 0
-2207 -2756 0
-2208 -2757 0
-2209 -2758 0
-2210 -2759 0
-2211 -2760 0
-2212 -2761 0
-2213 -2762 0
-2214 -2763 0
-2206 -2764 0
-2207 -2765 0
-2208 -2766 0
-2209 -2767 0
-2210 -2768 0
-2211 -2769 0
-2212 -2770 0
-2213 -2771 0
-2214 -2772 0
-2206 -2773 0
-2207 -2774 0
-2208 -2775 0
-2209 -2776 0
-2210 -2777 0
-2211 -2778 0
-2212 -2779 0
-2213 -2780 0
-2214 -2781 0
-2206 -2944 0
-2207 -2945 0
-2208 -2946 0
-2209 -2947 0
-2210 -2948 0
-2211 -2949 0
-2212 -2950 0
-2213 -2951 0
-2214 -2952 0
-2215 -2377 0
-2216 -2378 0
-2217 -2379 0
-2218 -2380 0
-2219 -2381 0
-2220 -2382 0
-2221 -2383 0
-2222 -2384 0
-2223 -2385 0
-2215 -2476 0
-2216 -2477 0
-2217 -2478 0
-2218 -2479 0
-2219 -2480 0
-2220 -2481 0
-2221 -2482 0
-2222 -2483 0
-2223 -2484 0
-2215 -2656 0
-2216 -2657 0
-2217 -2658 0
-2218 -2659 0
-2219 -2660 0
-2220 -2661 0
-2221 -2662 0
-2222 -2663 0
-2223 -2664 0
-2215 -2890 0
-2216 -2891 0
-2217 -2892 0
-2218 -2893 0
-2219 -2894 0
-2220 -2895 0
-2221 -2896 0
-2222 -2897 0
-2223 -2898 0
-2215 -2944 0
-2216 -2945 0
-2217 -2946 0
-2218 -2947 0
-2219 -2948 0
-2220 -2949 0
-2221 -2950 0
-2222 -2951 0
-2223 -2952 0
-2224 -2233 0
-2225 -2234 0
-2226 -2235 0
-2227 -2236 0
-2228 -2237 0
-2229 -2238 0
-2230 -2239 0
-2231 -2240 0
-2232 -2241 0
-2224 -2350 0
-2225 -2351 0
-2226 -2352 0
-2227 -2353 0
-2228 -2354 0
-2229 -2355 0
-2230 -2356 0
-2231 -2357 0
-2232 -2358 0
-2224 -2431 0
-2225 -2432 0
-2226 -2433 0
-2227 -2434 0
-2228 -2435 0
-2229 -2436 0
-2230 -2437 0
-2231 -2438 0
-2232 -2439 0
-2224 -2440 0
-2225 -2441 0
-2226 -2442 0
-2227 -2443 0
-2228 -2444 0
-2229 -2445 0
-2230 -2446 0
-2231 -2447 0
-2232 -2448 0
-2224 -2611 0
-2225 -2612 0
-2226 -2613 0
-2227 -2614 0
-2228 -2615 0
-2229 -2616 0
-2230 -2617 0
-2231 -2618 0
-2232 -2619 0
-2224 -2665 0
-2225 -2666 0
-2226 -2667 0
-2227 -2668 0
-2228 -2669 0
-2229 -2670 0
-2230 -2671 0
-2231 -2672 0
-2232 -2673 0
-2224 -2854 0
-2225 -2855 0
-2226 -2856 0
-2227 -2857 0
-2228 -2858 0
-2229 -2859 0
-2230 -2860 0
-2231 -2861 0
-2232 -2862 0
-2224 -2863 0
-2225 -2864 0
-2226 -2865 0
-2227 -2866 0
-2228 -2867 0
-2229 -2868 0
-2230 -2869 0
-2231 -2870 0
-2232 -2871 0
-2224 -2944 0
-2225 -2945 0
-2226 -2946 0
-2227 -2947 0
-2228 -2948 0
-2229 -2949 0
-2230 -2950 0
-2231 -2951 0
-2232 -2952 0
-2233 -2485 0
-2234 -2486 0
-2235 -2487 0
-2236 -2488 0
-2237 -2489 0
-2238 -2490 0
-2239 -2491 0
-2240 -2492 0
-2241 -2493 0
-2233 -2782 0
-2234 -2783 0
-2235 -2784 0
-2236 -2785 0
-2237 -2786 0
-2238 -2787 0
-2239 -2788 0
-2240 -2789 0
-2241 -2790 0
-2242 -2485 0
-2243 -2486 0
-2244 -2487 0
-2245 -2488 0
-2246 -2489 0
-2247 -2490 0
-2248 -2491 0
-2249 -2492 0
-2250 -2493 0
-2242 -2863 0
-2243 -2864 0
-2244 -2865 0
-2245 -2866 0
-2246 -2867 0
-2247 -2868 0
-2248 -2869 0
-2249 -2870 0
-2250 -2871 0
-2251 -2296 0
-2252 -2297 0
-2253 -2298 0
-2254 -2299 0
-2255 -2300 0
-2256 -2301 0
-2257 -2302 0
-2258 -2303 0
-2259 -2304 0
-2251 -2359 0
-2252 -2360 0
-2253 -2361 0
-2254 -2362 0
-2255 -2363 0
-2256 -2364 0
-2257 -2365 0
-2258 -2366 0
-2259 -2367 0
-2260 -2755 0
-2261 -2756 0
-2262 -2757 0
-2263 -2758 0
-2264 -2759 0
-2265 -2760 0
-2266 -2761 0
-2267 -2762 0
-2268 -2763 0
-2269 -2296 0
-2270 -2297 0
-2271 -2298 0
-2272 -2299 0
-2273 -2300 0
-2274 -2301 0
-2275 -2302 0
-2276 -2303 0
-2277 -2304 0
-2269 -2413 0
-2270 -2414 0
-2271 -2415 0
-2272 -2416 0
-2273 -2417 0
-2274 -2418 0
-2275 -2419 0
-2276 -2420 0
-2277 -2421 0
-2287 -2800 0
-2288 -2801 0
-2289 -2802 0
-2290 -2803 0
-2291 -2804 0
-2292 -2805 0
-2293 -2806 0
-2294 -2807 0
-2295 -2808 0
-2296 -2386 0
-2297 -2387 0
-2298 -2388 0
-2299 -2389 0
-2300 -2390 0
-2301 -2391 0
-2302 -2392 0
-2303 -2393 0
-2304 -2394 0
-2296 -2431 0
-2297 -2432 0
-2298 -2433 0
-2299 -2434 0
-2300 -2435 0
-2301 -2436 0
-2302 -2437 0
-2303 -2438 0
-2304 -2439 0
-2296 -2692 0
-2297 -2693 0
-2298 -2694 0
-2299 -2695 0
-2300 -2696 0
-2301 -2697 0
-2302 -2698 0
-2303 -2699 0
-2304 -2700 0
-2296 -2710 0
-2297 -2711 0
-2298 -2712 0
-2299 -2713 0
-2300 -2714 0
-2301 -2715 0
-2302 -2716 0
-2303 -2717 0
-2304 -2718 0
-2305 -2593 0
-2306 -2594 0
-2307 -2595 0
-2308 -2596 0
-2309 -2597 0
-2310 -2598 0
-2311 -2599 0
-2312 -2600 0
-2313 -2601 0
-2305 -2602 0
-2306 -2603 0
-2307 -2604 0
-2308 -2605 0
-2309 -2606 0
-2310 -2607 0
-2311 -2608 0
-2312 -2609 0
-2313 -2610 0
-2305 -2683 0
-2306 -2684 0
-2307 -2685 0
-2308 -2686 0
-2309 -2687 0
-2310 -2688 0
-2311 -2689 0
-2312 -2690 0
-2313 -2691 0
-2305 -2701 0
-2306 -2702 0
-2307 -2703 0
-2308 -2704 0
-2309 -2705 0
-2310 -2706 0
-2311 -2707 0
-2312 -2708 0
-2313 -2709 0
-2305 -2755 0
-2306 -2756 0
-2307 -2757 0
-2308 -2758 0
-2309 -2759 0
-2310 -2760 0
-2311 -2761 0
-2312 -2762 0
-2313 -2763 0
-2305 -2800 0
-2306 -2801 0
-2307 -2802 0
-2308 -2803 0
-2309 -2804 0
-2310 -2805 0
-2311 -2806 0
-2312 -2807 0
-2313 -2808 0
-2314 -2413 0
-2315 -2414 0
-2316 -2415 0
-2317 -2416 0
-2318 -2417 0
-2319 -2418 0
-2320 -2419 0
-2321 -2420 0
-2322 -2421 0
-2314 -2494 0
-2315 -2495 0
-2316 -2496 0
-2317 -2497 0
-2318 -2498 0
-2319 -2499 0
-2320 -2500 0
-2321 -2501 0
-2322 -2502 0
-2314 -2575 0
-2315 -2576 0
-2316 -2577 0
-2317 -2578 0
-2318 -2579 0
-2319 -2580 0
-2320 -2581 0
-2321 -2582 0
-2322 -2583 0
-2314 -2674 0
-2315 -2675 0
-2316 -2676 0
-2317 -2677 0
-2318 -2678 0
-2319 -2679 0
-2320 -2680 0
-2321 -2681 0
-2322 -2682 0
-2314 -2710 0
-2315 -2711 0
-2316 -2712 0
-2317 -2713 0
-2318 -2714 0
-2319 -2715 0
-2320 -2716 0
-2321 -2717 0
-2322 -2718 0
-2314 -2863 0
-2315 -2864 0
-2316 -2865 0
-2317 -2866 0
-2318 -2867 0
-2319 -2868 0
-2320 -2869 0
-2321 -2870 0
-2322 -2871 0
-2314 -2935 0
-2315 -2936 0
-2316 -2937 0
-2317 -2938 0
-2318 -2939 0
-2319 -2940 0
-2320 -2941 0
-2321 -2942 0
-2322 -2943 0
-2323 -2359 0
-2324 -2360 0
-2325 -2361 0
-2326 -2362 0
-2327 -2363 0
-2328 -2364 0
-2329 -2365 0
-2330 -2366 0
-2331 -2367 0
-2323 -2521 0
-2324 -2522 0
-2325 -2523 0
-2326 -2524 0
-2327 -2525 0
-2328 -2526 0
-2329 -2527 0
-2330 -2528 0
-2331 -2529 0
-2323 -2584 0
-2324 -2585 0
-2325 -2586 0
-2326 -2587 0
-2327 -2588 0
-2328 -2589 0
-2329 -2590 0
-2330 -2591 0
-2331 -2592 0
-2323 -2674 0
-2324 -2675 0
-2325 -2676 0
-2326 -2677 0
-2327 -2678 0
-2328 -2679 0
-2329 -2680 0
-2330 -2681 0
-2331 -2682 0
-2323 -2692 0
-2324 -2693 0
-2325 -2694 0
-2326 -2695 0
-2327 -2696 0
-2328 -2697 0
-2329 -2698 0
-2330 -2699 0
-2331 -2700 0
-2323 -2782 0
-2324 -2783 0
-2325 -2784 0
-2326 -2785 0
-2327 -2786 0
-2328 -2787 0
-2329 -2788 0
-2330 -2789 0
-2331 -2790 0
-2323 -2926 0
-2324 -2927 0
-2325 -2928 0
-2326 -2929 0
-2327 -2930 0
-2328 -2931 0
-2329 -2932 0
-2330 -2933 0
-2331 -2934 0
-2332 -2782 0
-2333 -2783 0
-2334 -2784 0
-2335 -2785 0
-2336 -2786 0
-2337 -2787 0
-2338 -2788 0
-2339 -2789 0
-2340 -2790 0
-2341 -2359 0
-2342 -2360 0
-2343 -2361 0
-2344 -2362 0
-2345 -2363 0
-2346 -2364 0
-2347 -2365 0
-2348 -2366 0
-2349 -2367 0
-2341 -2413 0
-2342 -2414 0
-2343 -2415 0
-2344 -2416 0
-2345 -2417 0
-2346 -2418 0
-2347 -2419 0
-2348 -2420 0
-2349 -2421 0
-2350 -2818 0
-2351 -2819 0
-2352 -2820 0
-2353 -2821 0
-2354 -2822 0
-2355 -2823 0
-2356 -2824 0
-2357 -2825 0
-2358 -2826 0
-2359 -2422 0
-2360 -2423 0
-2361 -2424 0
-2362 -2425 0
-2363 -2426 0
-2364 -2427 0
-2365 -2428 0
-2366 -2429 0
-2367 -2430 0
-2359 -2683 0
-2360 -2684 0
-2361 -2685 0
-2362 -2686 0
-2363 -2687 0
-2364 -2688 0
-2365 -2689 0
-2366 -2690 0
-2367 -2691 0
-2359 -2728 0
-2360 -2729 0
-2361 -2730 0
-2362 -2731 0
-2363 -2732 0
-2364 -2733 0
-2365 -2734 0
-2366 -2735 0
-2367 -2736 0
-2368 -2638 0
-2369 -2639 0
-2370 -2640 0
-2371 -2641 0
-2372 -2642 0
-2373 -2643 0
-2374 -2644 0
-2375 -2645 0
-2376 -2646 0
-2368 -2647 0
-2369 -2648 0
-2370 -2649 0
-2371 -2650 0
-2372 -2651 0
-2373 -2652 0
-2374 -2653 0
-2375 -2654 0
-2376 -2655 0
-2368 -2692 0
-2369 -2693 0
-2370 -2694 0
-2371 -2695 0
-2372 -2696 0
-2373 -2697 0
-2374 -2698 0
-2375 -2699 0
-2376 -2700 0
-2368 -2719 0
-2369 -2720 0
-2370 -2721 0
-2371 -2722 0
-2372 -2723 0
-2373 -2724 0
-2374 -2725 0
-2375 -2726 0
-2376 -2727 0
-2368 -2782 0
-2369 -2783 0
-2370 -2784 0
-2371 -2785 0
-2372 -2786 0
-2373 -2787 0
-2374 -2788 0
-2375 -2789 0
-2376 -2790 0
-2368 -2818 0
-2369 -2819 0
-2370 -2820 0
-2371 -2821 0
-2372 -2822 0
-2373 -2823 0
-2374 -2824 0
-2375 -2825 0
-2376 -2826 0
-2377 -2413 0
-2378 -2414 0
-2379 -2415 0
-2380 -2416 0
-2381 -2417 0
-2382 -2418 0
-2383 -2419 0
-2384 -2420 0
-2385 -2421 0
-2377 -2494 0
-2378 -2495 0
-2379 -2496 0
-2380 -2497 0
-2381 -2498 0
-2382 -2499 0
-2383 -2500 0
-2384 -2501 0
-2385 -2502 0
-2377 -2575 0
-2378 -2576 0
-2379 -2577 0
-2380 -2578 0
-2381 -2579 0
-2382 -2580 0
-2383 -2581 0
-2384 -2582 0
-2385 -2583 0
-2377 -2674 0
-2378 -2675 0
-2379 -2676 0
-2380 -2677 0
-2381 -2678 0
-2382 -2679 0
-2383 -2680 0
-2384 -2681 0
-2385 -2682 0
-2377 -2728 0
-2378 -2729 0
-2379 -2730 0
-2380 -2731 0
-2381 -2732 0
-2382 -2733 0
-2383 -2734 0
-2384 -2735 0
-2385 -2736 0
-2377 -2836 0
-2378 -2837 0
-2379 -2838 0
-2380 -2839 0
-2381 -2840 0
-2382 -2841 0
-2383 -2842 0
-2384 -2843 0
-2385 -2844 0
-2377 -2944 0
-2378 -2945 0
-2379 -2946 0
-2380 -2947 0
-2381 -2948 0
-2382 -2949 0
-2383 -2950 0
-2384 -2951 0
-2385 -2952 0
-2386 -2530 0
-2387 -2531 0
-2388 -2532 0
-2389 -2533 0
-2390 -2534 0
-2391 -2535 0
-2392 -2536 0
-2393 -2537 0
-2394 -2538 0
-2386 -2629 0
-2387 -2630 0
-2388 -2631 0
-2389 -2632 0
-2390 -2633 0
-2391 -2634 0
-2392 -2635 0
-2393 -2636 0
-2394 -2637 0
-2386 -2674 0
-2387 -2675 0
-2388 -2676 0
-2389 -2677 0
-2390 -2678 0
-2391 -2679 0
-2392 -2680 0
-2393 -2681 0
-2394 -2682 0
-2386 -2683 0
-2387 -2684 0
-2388 -2685 0
-2389 -2686 0
-2390 -2687 0
-2391 -2688 0
-2392 -2689 0
-2393 -2690 0
-2394 -2691 0
-2386 -2755 0
-2387 -2756 0
-2388 -2757 0
-2389 -2758 0
-2390 -2759 0
-2391 -2760 0
-2392 -2761 0
-2393 -2762 0
-2394 -2763 0
-2386 -2926 0
-2387 -2927 0
-2388 -2928 0
-2389 -2929 0
-2390 -2930 0
-2391 -2931 0
-2392 -2932 0
-2393 -2933 0
-2394 -2934 0
-2395 -2863 0
-2396 -2864 0
-2397 -2865 0
-2398 -2866 0
-2399 -2867 0
-2400 -2868 0
-2401 -2869 0
-2402 -2870 0
-2403 -2871 0
-2404 -2836 0
-2405 -2837 0
-2406 -2838 0
-2407 -2839 0
-2408 -2840 0
-2409 -2841 0
-2410 -2842 0
-2411 -2843 0
-2412 -2844 0
-2413 -2701 0
-2414 -2702 0
-2415 -2703 0
-2416 -2704 0
-2417 -2705 0
-2418 -2706 0
-2419 -2707 0
-2420 -2708 0
-2421 -2709 0
-2413 -2719 0
-2414 -2720 0
-2415 -2721 0
-2416 -2722 0
-2417 -2723 0
-2418 -2724 0
-2419 -2725 0
-2420 -2726 0
-2421 -2727 0
-2422 -2521 0
-2423 -2522 0
-2424 -2523 0
-2425 -2524 0
-2426 -2525 0
-2427 -2526 0
-2428 -2527 0
-2429 -2528 0
-2430 -2529 0
-2422 -2584 0
-2423 -2585 0
-2424 -2586 0
-2425 -2587 0
-2426 -2588 0
-2427 -2589 0
-2428 -2590 0
-2429 -2591 0
-2430 -2592 0
-2422 -2674 0
-2423 -2675 0
-2424 -2676 0
-2425 -2677 0
-2426 -2678 0
-2427 -2679 0
-2428 -2680 0
-2429 -2681 0
-2430 -2682 0
-2422 -2719 0
-2423 -2720 0
-2424 -2721 0
-2425 -2722 0
-2426 -2723 0
-2427 -2724 0
-2428 -2725 0
-2429 -2726 0
-2430 -2727 0
-2422 -2818 0
-2423 -2819 0
-2424 -2820 0
-2425 -2821 0
-2426 -2822 0
-2427 -2823 0
-2428 -2824 0
-2429 -2825 0
-2430 -2826 0
-2422 -2944 0
-2423 -2945 0
-2424 -2946 0
-2425 -2947 0
-2426 -2948 0
-2427 -2949 0
-2428 -2950 0
-2429 -2951 0
-2430 -2952 0
-2431 -2530 0
-2432 -2531 0
-2433 -2532 0
-2434 -2533 0
-2435 -2534 0
-2436 -2535 0
-2437 -2536 0
-2438 -2537 0
-2439 -2538 0
-2431 -2629 0
-2432 -2630 0
-2433 -2631 0
-2434 -2632 0
-2435 -2633 0
-2436 -2634 0
-2437 -2635 0
-2438 -2636 0
-2439 -2637 0
-2431 -2674 0
-2432 -2675 0
-2433 -2676 0
-2434 -2677 0
-2435 -2678 0
-2436 -2679 0
-2437 -2680 0
-2438 -2681 0
-2439 -2682 0
-2431 -2701 0
-2432 -2702 0
-2433 -2703 0
-2434 -2704 0
-2435 -2705 0
-2436 -2706 0
-2437 -2707 0
-2438 -2708 0
-2439 -2709 0
-2431 -2800 0
-2432 -2801 0
-2433 -2802 0
-2434 -2803 0
-2435 -2804 0
-2436 -2805 0
-2437 -2806 0
-2438 -2807 0
-2439 -2808 0
-2431 -2935 0
-2432 -2936 0
-2433 -2937 0
-2434 -2938 0
-2435 -2939 0
-2436 -2940 0
-2437 -2941 0
-2438 -2942 0
-2439 -2943 0
-2440 -2656 0
-2441 -2657 0
-2442 -2658 0
-2443 -2659 0
-2444 -2660 0
-2445 -2661 0
-2446 -2662 0
-2447 -2663 0
-2448 -2664 0
-2440 -2665 0
-2441 -2666 0
-2442 -2667 0
-2443 -2668 0
-2444 -2669 0
-2445 -2670 0
-2446 -2671 0
-2447 -2672 0
-2448 -2673 0
-2440 -2710 0
-2441 -2711 0
-2442 -2712 0
-2443 -2713 0
-2444 -2714 0
-2445 -2715 0
-2446 -2716 0
-2447 -2717 0
-2448 -2718 0
-2440 -2728 0
-2441 -2729 0
-2442 -2730 0
-2443 -2731 0
-2444 -2732 0
-2445 -2733 0
-2446 -2734 0
-2447 -2735 0
-2448 -2736 0
-2440 -2836 0
-2441 -2837 0
-2442 -2838 0
-2443 -2839 0
-2444 -2840 0
-2445 -2841 0
-2446 -2842 0
-2447 -2843 0
-2448 -2844 0
-2440 -2863 0
-2441 -2864 0
-2442 -2865 0
-2443 -2866 0
-2444 -2867 0
-2445 -2868 0
-2446 -2869 0
-2447 -2870 0
-2448 -2871 0
-2449 -2566 0
-2450 -2567 0
-2451 -2568 0
-2452 -2569 0
-2453 -2570 0
-2454 -2571 0
-2455 -2572 0
-2456 -2573 0
-2457 -2574 0
-2458 -2620 0
-2459 -2621 0
-2460 -2622 0
-2461 -2623 0
-2462 -2624 0
-2463 -2625 0
-2464 -2626 0
-2465 -2627 0
-2466 -2628 0
-2467 -2800 0
-2468 -2801 0
-2469 -2802 0
-2470 -2803 0
-2471 -2804 0
-2472 -2805 0
-2473 -2806 0
-2474 -2807 0
-2475 -2808 0
-2467 -2863 0
-2468 -2864 0
-2469 -2865 0
-2470 -2866 0
-2471 -2867 0
-2472 -2868 0
-2473 -2869 0
-2474 -2870 0
-2475 -2871 0
-2476 -2818 0
-2477 -2819 0
-2478 -2820 0
-2479 -2821 0
-2480 -2822 0
-2481 -2823 0
-2482 -2824 0
-2483 -2825 0
-2484 -2826 0
-2476 -2836 0
-2477 -2837 0
-2478 -2838 0
-2479 -2839 0
-2480 -2840 0
-2481 -2841 0
-2482 -2842 0
-2483 -2843 0
-2484 -2844 0
-2485 -2674 0
-2486 -2675 0
-2487 -2676 0
-2488 -2677 0
-2489 -2678 0
-2490 -2679 0
-2491 -2680 0
-2492 -2681 0
-2493 -2682 0
-2485 -2755 0
-2486 -2756 0
-2487 -2757 0
-2488 -2758 0
-2489 -2759 0
-2490 -2760 0
-2491 -2761 0
-2492 -2762 0
-2493 -2763 0
-2485 -2782 0
-2486 -2783 0
-2487 -2784 0
-2488 -2785 0
-2489 -2786 0
-2490 -2787 0
-2491 -2788 0
-2492 -2789 0
-2493 -2790 0
-2485 -2800 0
-2486 -2801 0
-2487 -2802 0
-2488 -2803 0
-2489 -2804 0
-2490 -2805 0
-2491 -2806 0
-2492 -2807 0
-2493 -2808 0
-2485 -2818 0
-2486 -2819 0
-2487 -2820 0
-2488 -2821 0
-2489 -2822 0
-2490 -2823 0
-2491 -2824 0
-2492 -2825 0
-2493 -2826 0
-2485 -2836 0
-2486 -2837 0
-2487 -2838 0
-2488 -2839 0
-2489 -2840 0
-2490 -2841 0
-2491 -2842 0
-2492 -2843 0
-2493 -2844 0
-2485 -2863 0
-2486 -2864 0
-2487 -2865 0
-2488 -2866 0
-2489 -2867 0
-2490 -2868 0
-2491 -2869 0
-2492 -2870 0
-2493 -2871 0
-2494 -2701 0
-2495 -2702 0
-2496 -2703 0
-2497 -2704 0
-2498 -2705 0
-2499 -2706 0
-2500 -2707 0
-2501 -2708 0
-2502 -2709 0
-2494 -2719 0
-2495 -2720 0
-2496 -2721 0
-2497 -2722 0
-2498 -2723 0
-2499 -2724 0
-2500 -2725 0
-2501 -2726 0
-2502 -2727 0
-2494 -2791 0
-2495 -2792 0
-2496 -2793 0
-2497 -2794 0
-2498 -2795 0
-2499 -2796 0
-2500 -2797 0
-2501 -2798 0
-2502 -2799 0
-2494 -2845 0
-2495 -2846 0
-2496 -2847 0
-2497 -2848 0
-2498 -2849 0
-2499 -2850 0
-2500 -2851 0
-2501 -2852 0
-2502 -2853 0
-2503 -2548 0
-2504 -2549 0
-2505 -2550 0
-2506 -2551 0
-2507 -2552 0
-2508 -2553 0
-2509 -2554 0
-2510 -2555 0
-2511 -2556 0
-2512 -2755 0
-2513 -2756 0
-2514 -2757 0
-2515 -2758 0
-2516 -2759 0
-2517 -2760 0
-2518 -2761 0
-2519 -2762 0
-2520 -2763 0
-2512 -2782 0
-2513 -2783 0
-2514 -2784 0
-2515 -2785 0
-2516 -2786 0
-2517 -2787 0
-2518 -2788 0
-2519 -2789 0
-2520 -2790 0
-2521 -2683 0
-2522 -2684 0
-2523 -2685 0
-2524 -2686 0
-2525 -2687 0
-2526 -2688 0
-2527 -2689 0
-2528 -2690 0
-2529 -2691 0
-2521 -2728 0
-2522 -2729 0
-2523 -2730 0
-2524 -2731 0
-2525 -2732 0
-2526 -2733 0
-2527 -2734 0
-2528 -2735 0
-2529 -2736 0
-2521 -2737 0
-2522 -2738 0
-2523 -2739 0
-2524 -2740 0
-2525 -2741 0
-2526 -2742 0
-2527 -2743 0
-2528 -2744 0
-2529 -2745 0
-2521 -2881 0
-2522 -2882 0
-2523 -2883 0
-2524 -2884 0
-2525 -2885 0
-2526 -2886 0
-2527 -2887 0
-2528 -2888 0
-2529 -2889 0
-2530 -2692 0
-2531 -2693 0
-2532 -2694 0
-2533 -2695 0
-2534 -2696 0
-2535 -2697 0
-2536 -2698 0
-2537 -2699 0
-2538 -2700 0
-2530 -2710 0
-2531 -2711 0
-2532 -2712 0
-2533 -2713 0
-2534 -2714 0
-2535 -2715 0
-2536 -2716 0
-2537 -2717 0
-2538 -2718 0
-2530 -2764 0
-2531 -2765 0
-2532 -2766 0
-2533 -2767 0
-2534 -2768 0
-2535 -2769 0
-2536 -2770 0
-2537 -2771 0
-2538 -2772 0
-2530 -2890 0
-2531 -2891 0
-2532 -2892 0
-2533 -2893 0
-2534 -2894 0
-2535 -2895 0
-2536 -2896 0
-2537 -2897 0
-2538 -2898 0
-2539 -2926 0
-2540 -2927 0
-2541 -2928 0
-2542 -2929 0
-2543 -2930 0
-2544 -2931 0
-2545 -2932 0
-2546 -2933 0
-2547 -2934 0
-2548 -2926 0
-2549 -2927 0
-2550 -2928 0
-2551 -2929 0
-2552 -2930 0
-2553 -2931 0
-2554 -2932 0
-2555 -2933 0
-2556 -2934 0
-2557 -2935 0
-2558 -2936 0
-2559 -2937 0
-2560 -2938 0
-2561 -2939 0
-2562 -2940 0
-2563 -2941 0
-2564 -2942 0
-2565 -2943 0
-2566 -2935 0
-2567 -2936 0
-2568 -2937 0
-2569 -2938 0
-2570 -2939 0
-2571 -2940 0
-2572 -2941 0
-2573 -2942 0
-2574 -2943 0
-2575 -2593 0
-2576 -2594 0
-2577 -2595 0
-2578 -2596 0
-2579 -2597 0
-2580 -2598 0
-2581 -2599 0
-2582 -2600 0
-2583 -2601 0
-2575 -2638 0
-2576 -2639 0
-2577 -2640 0
-2578 -2641 0
-2579 -2642 0
-2580 -2643 0
-2581 -2644 0
-2582 -2645 0
-2583 -2646 0
-2584 -2602 0
-2585 -2603 0
-2586 -2604 0
-2587 -2605 0
-2588 -2606 0
-2589 -2607 0
-2590 -2608 0
-2591 -2609 0
-2592 -2610 0
-2584 -2656 0
-2585 -2657 0
-2586 -2658 0
-2587 -2659 0
-2588 -2660 0
-2589 -2661 0
-2590 -2662 0
-2591 -2663 0
-2592 -2664 0
-2593 -2602 0
-2594 -2603 0
-2595 -2604 0
-2596 -2605 0
-2597 -2606 0
-2598 -2607 0
-2599 -2608 0
-2600 -2609 0
-2601 -2610 0
-2593 -2800 0
-2594 -2801 0
-2595 -2802 0
-2596 -2803 0
-2597 -2804 0
-2598 -2805 0
-2599 -2806 0
-2600 -2807 0
-2601 -2808 0
-2593 -2809 0
-2594 -2810 0
-2595 -2811 0
-2596 -2812 0
-2597 -2813 0
-2598 -2814 0
-2599 -2815 0
-2600 -2816 0
-2601 -2817 0
-2593 -2899 0
-2594 -2900 0
-2595 -2901 0
-2596 -2902 0
-2597 -2903 0
-2598 -2904 0
-2599 -2905 0
-2600 -2906 0
-2601 -2907 0
-2593 -2926 0
-2594 -2927 0
-2595 -2928 0
-2596 -2929 0
-2597 -2930 0
-2598 -2931 0
-2599 -2932 0
-2600 -2933 0
-2601 -2934 0
-2602 -2746 0
-2603 -2747 0
-2604 -2748 0
-2605 -2749 0
-2606 -2750 0
-2607 -2751 0
-2608 -2752 0
-2609 -2753 0
-2610 -2754 0
-2602 -2755 0
-2603 -2756 0
-2604 -2757 0
-2605 -2758 0
-2606 -2759 0
-2607 -2760 0
-2608 -2761 0
-2609 -2762 0
-2610 -2763 0
-2602 -2899 0
-2603 -2900 0
-2604 -2901 0
-2605 -2902 0
-2606 -2903 0
-2607 -2904 0
-2608 -2905 0
-2609 -2906 0
-2610 -2907 0
-2602 -2935 0
-2603 -2936 0
-2604 -2937 0
-2605 -2938 0
-2606 -2939 0
-2607 -2940 0
-2608 -2941 0
-2609 -2942 0
-2610 -2943 0
-2611 -2944 0
-2612 -2945 0
-2613 -2946 0
-2614 -2947 0
-2615 -2948 0
-2616 -2949 0
-2617 -2950 0
-2618 -2951 0
-2619 -2952 0
-2620 -2944 0
-2621 -2945 0
-2622 -2946 0
-2623 -2947 0
-2624 -2948 0
-2625 -2949 0
-2626 -2950 0
-2627 -2951 0
-2628 -2952 0
-2629 -2647 0
-2630 -2648 0
-2631 -2649 0
-2632 -2650 0
-2633 -2651 0
-2634 -2652 0
-2635 -2653 0
-2636 -2654 0
-2637 -2655 0
-2629 -2665 0
-2630 -2666 0
-2631 -2667 0
-2632 -2668 0
-2633 -2669 0
-2634 -2670 0
-2635 -2671 0
-2636 -2672 0
-2637 -2673 0
-2638 -2647 0
-2639 -2648 0
-2640 -2649 0
-2641 -2650 0
-2642 -2651 0
-2643 -2652 0
-2644 -2653 0
-2645 -2654 0
-2646 -2655 0
-2638 -2818 0
-2639 -2819 0
-2640 -2820 0
-2641 -2821 0
-2642 -2822 0
-2643 -2823 0
-2644 -2824 0
-2645 -2825 0
-2646 -2826 0
-2638 -2872 0
-2639 -2873 0
-2640 -2874 0
-2641 -2875 0
-2642 -2876 0
-2643 -2877 0
-2644 -2878 0
-2645 -2879 0
-2646 -2880 0
-2638 -2908 0
-2639 -2909 0
-2640 -2910 0
-2641 -2911 0
-2642 -2912 0
-2643 -2913 0
-2644 -2914 0
-2645 -2915 0
-2646 -2916 0
-2638 -2926 0
-2639 -2927 0
-2640 -2928 0
-2641 -2929 0
-2642 -2930 0
-2643 -2931 0
-2644 -2932 0
-2645 -2933 0
-2646 -2934 0
-2647 -2773 0
-2648 -2774 0
-2649 -2775 0
-2650 -2776 0
-2651 -2777 0
-2652 -2778 0
-2653 -2779 0
-2654 -2780 0
-2655 -2781 0
-2647 -2782 0
-2648 -2783 0
-2649 -2784 0
-2650 -2785 0
-2651 -2786 0
-2652 -2787 0
-2653 -2788 0
-2654 -2789 0
-2655 -2790 0
-2647 -2908 0
-2648 -2909 0
-2649 -2910 0
-2650 -2911 0
-2651 -2912 0
-2652 -2913 0
-2653 -2914 0
-2654 -2915 0
-2655 -2916 0
-2647 -2944 0
-2648 -2945 0
-2649 -2946 0
-2650 -2947 0
-2651 -2948 0
-2652 -2949 0
-2653 -2950 0
-2654 -2951 0
-2655 -2952 0
-2656 -2665 0
-2657 -2666 0
-2658 -2667 0
-2659 -2668 0
-2660 -2669 0
-2661 -2670 0
-2662 -2671 0
-2663 -2672 0
-2664 -2673 0
-2656 -2836 0
-2657 -2837 0
-2658 -2838 0
-2659 -2839 0
-2660 -2840 0
-2661 -2841 0
-2662 -2842 0
-2663 -2843 0
-2664 -2844 0
-2656 -2854 0
-2657 -2855 0
-2658 -2856 0
-2659 -2857 0
-2660 -2858 0
-2661 -2859 0
-2662 -2860 0
-2663 -2861 0
-2664 -2862 0
-2656 -2917 0
-2657 -2918 0
-2658 -2919 0
-2659 -2920 0
-2660 -2921 0
-2661 -2922 0
-2662 -2923 0
-2663 -2924 0
-2664 -2925 0
-2656 -2935 0
-2657 -2936 0
-2658 -2937 0
-2659 -2938 0
-2660 -2939 0
-2661 -2940 0
-2662 -2941 0
-2663 -2942 0
-2664 -2943 0
-2665 -2827 0
-2666 -2828 0
-2667 -2829 0
-2668 -2830 0
-2669 -2831 0
-2670 -2832 0
-2671 -2833 0
-2672 -2834 0
-2673 -2835 0
-2665 -2863 0
-2666 -2864 0
-2667 -2865 0
-2668 -2866 0
-2669 -2867 0
-2670 -2868 0
-2671 -2869 0
-2672 -2870 0
-2673 -2871 0
-2665 -2917 0
-2666 -2918 0
-2667 -2919 0
-2668 -2920 0
-2669 -2921 0
-2670 -2922 0
-2671 -2923 0
-2672 -2924 0
-2673 -2925 0
-2665 -2944 0
-2666 -2945 0
-2667 -2946 0
-2668 -2947 0
-2669 -2948 0
-2670 -2949 0
-2671 -2950 0
-2672 -2951 0
-2673 -2952 0
-2683 -2692 0
-2684 -2693 0
-2685 -2694 0
-2686 -2695 0
-2687 -2696 0
-2688 -2697 0
-2689 -2698 0
-2690 -2699 0
-2691 -2700 0
-2683 -2755 0
-2684 -2756 0
-2685 -2757 0
-2686 -2758 0
-2687 -2759 0
-2688 -2760 0
-2689 -2761 0
-2690 -2762 0
-2691 -2763 0
-2683 -2809 0
-2684 -2810 0
-2685 -2811 0
-2686 -2812 0
-2687 -2813 0
-2688 -2814 0
-2689 -2815 0
-2690 -2816 0
-2691 -2817 0
-2692 -2782 0
-2693 -2783 0
-2694 -2784 0
-2695 -2785 0
-2696 -2786 0
-2697 -2787 0
-2698 -2788 0
-2699 -2789 0
-2700 -2790 0
-2692 -2872 0
-2693 -2873 0
-2694 -2874 0
-2695 -2875 0
-2696 -2876 0
-2697 -2877 0
-2698 -2878 0
-2699 -2879 0
-2700 -2880 0
-2701 -2710 0
-2702 -2711 0
-2703 -2712 0
-2704 -2713 0
-2705 -2714 0
-2706 -2715 0
-2707 -2716 0
-2708 -2717 0
-2709 -2718 0
-2701 -2746 0
-2702 -2747 0
-2703 -2748 0
-2704 -2749 0
-2705 -2750 0
-2706 -2751 0
-2707 -2752 0
-2708 -2753 0
-2709 -2754 0
-2701 -2800 0
-2702 -2801 0
-2703 -2802 0
-2704 -2803 0
-2705 -2804 0
-2706 -2805 0
-2707 -2806 0
-2708 -2807 0
-2709 -2808 0
-2710 -2854 0
-2711 -2855 0
-2712 -2856 0
-2713 -2857 0
-2714 -2858 0
-2715 -2859 0
-2716 -2860 0
-2717 -2861 0
-2718 -2862 0
-2710 -2863 0
-2711 -2864 0
-2712 -2865 0
-2713 -2866 0
-2714 -2867 0
-2715 -2868 0
-2716 -2869 0
-2717 -2870 0
-2718 -2871 0
-2719 -2728 0
-2720 -2729 0
-2721 -2730 0
-2722 -2731 0
-2723 -2732 0
-2724 -2733 0
-2725 -2734 0
-2726 -2735 0
-2727 -2736 0
-2719 -2773 0
-2720 -2774 0
-2721 -2775 0
-2722 -2776 0
-2723 -2777 0
-2724 -2778 0
-2725 -2779 0
-2726 -2780 0
-2727 -2781 0
-2719 -2818 0
-2720 -2819 0
-2721 -2820 0
-2722 -2821 0
-2723 -2822 0
-2724 -2823 0
-2725 -2824 0
-2726 -2825 0
-2727 -2826 0
-2728 -2827 0
-2729 -2828 0
-2730 -2829 0
-2731 -2830 0
-2732 -2831 0
-2733 -2832 0
-2734 -2833 0
-2735 -2834 0
-2736 -2835 0
-2728 -2836 0
-2729 -2837 0
-2730 -2838 0
-2731 -2839 0
-2732 -2840 0
-2733 -2841 0
-2734 -2842 0
-2735 -2843 0
-2736 -2844 0
-2737 -2755 0
-2738 -2756 0
-2739 -2757 0
-2740 -2758 0
-2741 -2759 0
-2742 -2760 0
-2743 -2761 0
-2744 -2762 0
-2745 -2763 0
-2737 -2881 0
-2738 -2882 0
-2739 -2883 0
-2740 -2884 0
-2741 -2885 0
-2742 -2886 0
-2743 -2887 0
-2744 -2888 0
-2745 -2889 0
-2737 -2899 0
-2738 -2900 0
-2739 -2901 0
-2740 -2902 0
-2741 -2903 0
-2742 -2904 0
-2743 -2905 0
-2744 -2906 0
-2745 -2907 0
-2746 -2782 0
-2747 -2783 0
-2748 -2784 0
-2749 -2785 0
-2750 -2786 0
-2751 -2787 0
-2752 -2788 0
-2753 -2789 0
-2754 -2790 0
-2746 -2935 0
-2747 -2936 0
-2748 -2937 0
-2749 -2938 0
-2750 -2939 0
-2751 -2940 0
-2752 -2941 0
-2753 -2942 0
-2754 -2943 0
-2755 -2773 0
-2756 -2774 0
-2757 -2775 0
-2758 -2776 0
-2759 -2777 0
-2760 -2778 0
-2761 -2779 0
-2762 -2780 0
-2763 -2781 0
-2755 -2782 0
-2756 -2783 0
-2757 -2784 0
-2758 -2785 0
-2759 -2786 0
-2760 -2787 0
-2761 -2788 0
-2762 -2789 0
-2763 -2790 0
-2755 -2899 0
-2756 -2900 0
-2757 -2901 0
-2758 -2902 0
-2759 -2903 0
-2760 -2904 0
-2761 -2905 0
-2762 -2906 0
-2763 -2907 0
-2755 -2935 0
-2756 -2936 0
-2757 -2937 0
-2758 -2938 0
-2759 -2939 0
-2760 -2940 0
-2761 -2941 0
-2762 -2942 0
-2763 -2943 0
-2764 -2782 0
-2765 -2783 0
-2766 -2784 0
-2767 -2785 0
-2768 -2786 0
-2769 -2787 0
-2770 -2788 0
-2771 -2789 0
-2772 -2790 0
-2764 -2890 0
-2765 -2891 0
-2766 -2892 0
-2767 -2893 0
-2768 -2894 0
-2769 -2895 0
-2770 -2896 0
-2771 -2897 0
-2772 -2898 0
-2764 -2908 0
-2765 -2909 0
-2766 -2910 0
-2767 -2911 0
-2768 -2912 0
-2769 -2913 0
-2770 -2914 0
-2771 -2915 0
-2772 -2916 0
-2773 -2944 0
-2774 -2945 0
-2775 -2946 0
-2776 -2947 0
-2777 -2948 0
-2778 -2949 0
-2779 -2950 0
-2780 -2951 0
-2781 -2952 0
-2782 -2908 0
-2783 -2909 0
-2784 -2910 0
-2785 -2911 0
-2786 -2912 0
-2787 -2913 0
-2788 -2914 0
-2789 -2915 0
-2790 -2916 0
-2782 -2944 0
-2783 -2945 0
-2784 -2946 0
-2785 -2947 0
-2786 -2948 0
-2787 -2949 0
-2788 -2950 0
-2789 -2951 0
-2790 -2952 0
-2791 -2800 0
-2792 -2801 0
-2793 -2802 0
-2794 -2803 0
-2795 -2804 0
-2796 -2805 0
-2797 -2806 0
-2798 -2807 0
-2799 -2808 0
-2791 -2845 0
-2792 -2846 0
-2793 -2847 0
-2794 -2848 0
-2795 -2849 0
-2796 -2850 0
-2797 -2851 0
-2798 -2852 0
-2799 -2853 0
-2791 -2899 0
-2792 -2900 0
-2793 -2901 0
-2794 -2902 0
-2795 -2903 0
-2796 -2904 0
-2797 -2905 0
-2798 -2906 0
-2799 -2907 0
-2800 -2827 0
-2801 -2828 0
-2802 -2829 0
-2803 -2830 0
-2804 -2831 0
-2805 -2832 0
-2806 -2833 0
-2807 -2834 0
-2808 -2835 0
-2800 -2863 0
-2801 -2864 0
-2802 -2865 0
-2803 -2866 0
-2804 -2867 0
-2805 -2868 0
-2806 -2869 0
-2807 -2870 0
-2808 -2871 0
-2800 -2899 0
-2801 -2900 0
-2802 -2901 0
-2803 -2902 0
-2804 -2903 0
-2805 -2904 0
-2806 -2905 0
-2807 -2906 0
-2808 -2907 0
-2800 -2926 0
-2801 -2927 0
-2802 -2928 0
-2803 -2929 0
-2804 -2930 0
-2805 -2931 0
-2806 -2932 0
-2807 -2933 0
-2808 -2934 0
-2809 -2863 0
-2810 -2864 0
-2811 -2865 0
-2812 -2866 0
-2813 -2867 0
-2814 -2868 0
-2815 -2869 0
-2816 -2870 0
-2817 -2871 0
-2809 -2926 0
-2810 -2927 0
-2811 -2928 0
-2812 -2929 0
-2813 -2930 0
-2814 -2931 0
-2815 -2932 0
-2816 -2933 0
-2817 -2934 0
-2818 -2836 0
-2819 -2837 0
-2820 -2838 0
-2821 -2839 0
-2822 -2840 0
-2823 -2841 0
-2824 -2842 0
-2825 -2843 0
-2826 -2844 0
-2818 -2845 0
-2819 -2846 0
-2820 -2847 0
-2821 -2848 0
-2822 -2849 0
-2823 -2850 0
-2824 -2851 0
-2825 -2852 0
-2826 -2853 0
-2818 -2854 0
-2819 -2855 0
-2820 -2856 0
-2821 -2857 0
-2822 -2858 0
-2823 -2859 0
-2824 -2860 0
-2825 -2861 0
-2826 -2862 0
-2818 -2908 0
-2819 -2909 0
-2820 -2910 0
-2821 -2911 0
-2822 -2912 0
-2823 -2913 0
-2824 -2914 0
-2825 -2915 0
-2826 -2916 0
-2818 -2926 0
-2819 -2927 0
-2820 -2928 0
-2821 -2929 0
-2822 -2930 0
-2823 -2931 0
-2824 -2932 0
-2825 -2933 0
-2826 -2934 0
-2827 -2944 0
-2828 -2945 0
-2829 -2946 0
-2830 -2947 0
-2831 -2948 0
-2832 -2949 0
-2833 -2950 0
-2834 -2951 0
-2835 -2952 0
-2836 -2872 0
-2837 -2873 0
-2838 -2874 0
-2839 -2875 0
-2840 -2876 0
-2841 -2877 0
-2842 -2878 0
-2843 -2879 0
-2844 -2880 0
-2836 -2881 0
-2837 -2882 0
-2838 -2883 0
-2839 -2884 0
-2840 -2885 0
-2841 -2886 0
-2842 -2887 0
-2843 -2888 0
-2844 -2889 0
-2836 -2917 0
-2837 -2918 0
-2838 -2919 0
-2839 -2920 0
-2840 -2921 0
-2841 -2922 0
-2842 -2923 0
-2843 -2924 0
-2844 -2925 0
-2836 -2935 0
-2837 -2936 0
-2838 -2937 0
-2839 -2938 0
-2840 -2939 0
-2841 -2940 0
-2842 -2941 0
-2843 -2942 0
-2844 -2943 0
-2845 -2908 0
-2846 -2909 0
-2847 -2910 0
-2848 -2911 0
-2849 -2912 0
-2850 -2913 0
-2851 -2914 0
-2852 -2915 0
-2853 -2916 0
-2854 -2935 0
-2855 -2936 0
-2856 -2937 0
-2857 -2938 0
-2858 -2939 0
-2859 -2940 0
-2860 -2941 0
-2861 -2942 0
-2862 -2943 0
-2863 -2890 0
-2864 -2891 0
-2865 -2892 0
-2866 -2893 0
-2867 -2894 0
-2868 -2895 0
-2869 -2896 0
-2870 -2897 0
-2871 -2898 0
-2863 -2917 0
-2864 -2918 0
-2865 -2919 0
-2866 -2920 0
-2867 -2921 0
-2868 -2922 0
-2869 -2923 0
-2870 -2924 0
-2871 -2925 0
-2863 -2944 0
-2864 -2945 0
-2865 -2946 0
-2866 -2947 0
-2867 -2948 0
-2868 -2949 0
-2869 -2950 0
-2870 -2951 0
-2871 -2952 0
-2872 -2926 0
-2873 -2927 0
-2874 -2928 0
-2875 -2929 0
-2876 -2930 0
-2877 -2931 0
-2878 -2932 0
-2879 -2933 0
-2880 -2934 0
-2881 -2917 0
-2882 -2918 0
-2883 -2919 0
-2884 -2920 0
-2885 -2921 0
-2886 -2922 0
-2887 -2923 0
-2888 -2924 0
-2889 -2925 0
-2890 -2917 0
-2891 -2918 0
-2892 -2919 0
-2893 -2920 0
-2894 -2921 0
-2895 -2922 0
-2896 -2923 0
-2897 -2924 0
-2898 -2925 0
-2899 -2908 0
-2900 -2909 0
-2901 -2910 0
-2902 -2911 0
-2903 -2912 0
-2904 -2913 0
-2905 -2914 0
-2906 -2915 0
-2907 -2916 0
-2899 -2917 0
-2900 -2918 0
-2901 -2919 0
-2902 -2920 0
-2903 -2921 0
-2904 -2922 0
-2905 -2923 0
-2906 -2924 0
-2907 -2925 0
-2899 -2926 0
-2900 -2927 0
-2901 -2928 0
-2902 -2929 0
-2903 -2930 0
-2904 -2931 0
-2905 -2932 0
-2906 -2933 0
-2907 -2934 0
-2899 -2935 0
-2900 -2936 0
-2901 -2937 0
-2902 -2938 0
-2903 -2939 0
-2904 -2940 0
-2905 -2941 0
-2906 -2942 0
-2907 -2943 0
-2908 -2917 0
-2909 -2918 0
-2910 -2919 0
-2911 -2920 0
-2912 -2921 0
-2913 -2922 0
-2914 -2923 0
-2915 -2924 0
-2916 -2925 0
-2908 -2926 0
-2909 -2927 0
-2910 -2928 0
-2911 -2929 0
-2912 -2930 0
-2913 -2931 0
-2914 -2932 0
-2915 -2933 0
-2916 -2934 0
-2908 -2944 0
-2909 -2945 0
-2910 -2946 0
-2911 -2947 0
-2912 -2948 0
-2913 -2949 0
-2914 -2950 0
-2915 -2951 0
-2916 -2952 0
-2917 -2935 0
-2918 -2936 0
-2919 -2937 0
-2920 -2938 0
-2921 -2939 0
-2922 -2940 0
-2923 -2941 0
-2924 -2942 0
-2925 -2943 0
-2917 -2944 0
-2918 -2945 0
-2919 -2946 0
-2920 -2947 0
-2921 -2948 0
-2922 -2949 0
-2923 -2950 0
-2924 -2951 0
-2925 -2952 0
-2926 -2935 0
-2927 -2936 0
-2928 -2937 0
-2929 -2938 0
-2930 -2939 0
-2931 -2940 0
-2932 -2941 0
-2933 -2942 0
-2934 -2943 0
-2926 -2944 0
-2927 -2945 0
-2928 -2946 0
-2929 -2947 0
-2930 -2948 0
-2931 -2949 0
-2932 -2950 0
-2933 -2951 0
-2934 -2952 0
-2935 -2944 0
-2936 -2945 0
-2937 -2946 0
-2938 -2947 0
-2939 -2948 0
-2940 -2949 0
-2941 -2950 0
-2942 -2951 0
-2943 -2952 0
577 0
353 0
327 0
310 0
464 0
1 0
257 0
285 0
304 0
